9
Properties=species:S:1:pos:R:3:xtb2_normal_mode_displacements_0:R:3:xtb2_normal_mode_displacements_1:R:3:xtb2_normal_mode_displacements_2:R:3:xtb2_normal_mode_displacements_3:R:3:xtb2_normal_mode_displacements_4:R:3:xtb2_normal_mode_displacements_5:R:3:xtb2_normal_mode_displacements_6:R:3:xtb2_normal_mode_displacements_7:R:3:xtb2_normal_mode_displacements_8:R:3:xtb2_normal_mode_displacements_9:R:3:xtb2_normal_mode_displacements_10:R:3:xtb2_normal_mode_displacements_11:R:3:xtb2_normal_mode_displacements_12:R:3:xtb2_normal_mode_displacements_13:R:3:xtb2_normal_mode_displacements_14:R:3:xtb2_normal_mode_displacements_15:R:3:xtb2_normal_mode_displacements_16:R:3:xtb2_normal_mode_displacements_17:R:3:xtb2_normal_mode_displacements_18:R:3:xtb2_normal_mode_displacements_19:R:3:xtb2_normal_mode_displacements_20:R:3:xtb2_normal_mode_displacements_21:R:3:xtb2_normal_mode_displacements_22:R:3:xtb2_normal_mode_displacements_23:R:3:xtb2_normal_mode_displacements_24:R:3:xtb2_normal_mode_displacements_25:R:3:xtb2_normal_mode_displacements_26:R:3 propene=T reference=T _ConfigSet_loc=" / 0 / 0" xtb2_normal_mode_frequencies="-0.0019461934127446617 -0.0012160035104524494 -9.93123452020089e-06 -1.3014229096056314e-06 2.01829311176581e-05 0.001182055215837519 0.020396585011163454 0.052646472270038644 0.0720661965517159 0.1107921441650487 0.11576844989559419 0.12116217101615684 0.12587386431539677 0.1301292403266887 0.14503383082407395 0.16000746051012865 0.17305063547571045 0.17607711388641958 0.183235233322014 0.184200200995007 0.21403806997450184 0.37170880543951323 0.3735009117214228 0.376824539972782 0.37858381524906215 0.3840148551557691 0.3873825460436433" pbc="F F F"
C       -0.00092761       0.01138203      -0.00000103      -0.00018484      -0.00006232      -0.14700365      -0.09212380      -0.03163889       0.00081388       0.00050246       0.00109785       0.33605481       0.30146046      -0.14226065       0.00001578       0.14025167       0.30087247      -0.00119299       0.00023600       0.00006442       0.10304089       0.00000042      -0.00000132      -0.09430485      -0.09701738       0.17667746      -0.00000038      -0.00000087      -0.00000076      -0.13912814       0.00000008       0.00000090       0.07919680       0.02104941       0.02966821       0.00000061      -0.03805961      -0.10937999       0.00000192      -0.00000012      -0.00000060       0.00351711      -0.00000039      -0.00000203      -0.13318641       0.01034389      -0.22655967       0.00000343       0.00440973       0.07800001      -0.00000119      -0.04011031       0.00509104      -0.00000001      -0.08035350      -0.03517561       0.00000065       0.00000006       0.00000011      -0.01181682       0.00207009       0.00179519      -0.00000008      -0.52029516      -0.07716670       0.00000223      -0.00000008      -0.00000001       0.00192081       0.00093338       0.00529737      -0.00000003      -0.01922576       0.02908937      -0.00000034       0.03965149      -0.06032606       0.00000069      -0.00279413      -0.00354144       0.00000005       0.00684677      -0.01257639       0.00000013
C        1.31833914       0.01223186      -0.00000419      -0.00018444       0.00049407       0.16225851      -0.09229575       0.24032147       0.00002729       0.00050246       0.00109289       0.33530478       0.30146107      -0.14226385       0.00001538       0.14024844       0.30695895      -0.00119132       0.00023668      -0.00065616       0.19773506       0.00000082      -0.00000001       0.06913106      -0.10338774      -0.13436733       0.00000243      -0.00000062      -0.00000078       0.05006226      -0.00000048      -0.00000321      -0.15622235       0.02603792       0.10545320      -0.00000324      -0.11657114      -0.05848917       0.00000053      -0.00000070       0.00000034       0.03113218      -0.00000031      -0.00000060      -0.03415752      -0.00174871       0.09787693      -0.00000182       0.07372617      -0.06808843       0.00000095      -0.00961938      -0.00573576       0.00000012      -0.03655727       0.01011078      -0.00000011       0.00000001      -0.00000009      -0.00100521       0.02851820      -0.00007918      -0.00000005       0.46282307       0.00614317      -0.00000123       0.00000003       0.00000000       0.00022002      -0.00109131       0.00058150       0.00000000       0.00036708      -0.00042689       0.00000001      -0.00315517       0.01095426      -0.00000016       0.06134740      -0.02404248       0.00000021      -0.01797284      -0.09123604       0.00000138
H       -0.54536780       0.94743736      -0.00001169      -0.00057720      -0.00029473      -0.52278016      -0.28517891      -0.14391174       0.00268754       0.00050597       0.00109994       0.34095234       0.30146798      -0.14225445       0.00001672       0.13592192       0.29835260      -0.00116794       0.00074992       0.00036575       0.30808101       0.00000137      -0.00000242      -0.24110632      -0.06379115       0.18204692      -0.00000890       0.00000057       0.00000595       0.37562491       0.00000247      -0.00000208      -0.29747072      -0.28749309      -0.14771481       0.00000010      -0.24737010      -0.23404283       0.00000714      -0.00000213      -0.00000894      -0.62138682       0.00000082       0.00000566       0.47327106      -0.18966448      -0.32053687       0.00000252      -0.83076652      -0.41407775       0.00000666      -0.05110253      -0.00069595      -0.00000027       0.09153297       0.06641310      -0.00000098      -0.00000014       0.00000042       0.03009094      -0.02893096      -0.01630472      -0.00000006       0.09341611       0.32206185      -0.00000491      -0.00000001       0.00000001      -0.00098587       0.03079063      -0.05370249       0.00000054       0.22840772      -0.39451688       0.00000451      -0.44272279       0.75396366      -0.00000866      -0.01545228       0.03002717      -0.00000033      -0.05873820       0.10694769      -0.00000121
H        1.89037620       0.92438405      -0.00001881      -0.00056703       0.00073225       0.05450902      -0.28056468       0.35838396       0.00119407       0.00050595       0.00109076       0.33947353       0.30145500      -0.14225979       0.00001596       0.13604797       0.30959084      -0.00116561       0.00073719      -0.00096564       0.47690998       0.00000128      -0.00000084       0.03668975       0.23220889      -0.34684761      -0.00000078       0.00000504       0.00000419       0.59610778      -0.00000412       0.00001505       0.83068971       0.52058993      -0.22168509       0.00000934      -0.31916403       0.06610723      -0.00000275      -0.00000050       0.00000307       0.21615231       0.00000030       0.00000279       0.20483697       0.31488038      -0.13019483       0.00000036      -0.04121456       0.02269696       0.00000009       0.28728469      -0.17396768       0.00000185       0.54988296      -0.33291287       0.00000335      -0.00000080       0.00000049       0.00539027      -0.09119498       0.06857005      -0.00000064      -0.08357487       0.36277264      -0.00000453       0.00000000      -0.00000001      -0.00243314      -0.00149107      -0.00250474      -0.00000001       0.01480606       0.02224586      -0.00000033      -0.05262717      -0.07570769       0.00000120      -0.24292805      -0.44209991       0.00000693       0.46647478       0.72342613      -0.00001153
C       -0.84778387      -1.21684823       0.00001556       0.00032843      -0.00041438      -0.02071977       0.16106191      -0.20620780      -0.00070711       0.00049781       0.00110099       0.33041712       0.30145177      -0.14225113       0.00001502       0.14592482       0.29696487      -0.00122747      -0.00043924       0.00052502      -0.27943326      -0.00000117       0.00000102       0.00809838       0.15731822       0.01686223      -0.00000178       0.00000104       0.00000107       0.01404126      -0.00000038       0.00000047      -0.01146581       0.00690840      -0.08751194       0.00000088       0.20297140       0.10921681      -0.00000283       0.00000136       0.00000140       0.07089068       0.00000070       0.00000192       0.12458419      -0.03531808       0.16738018      -0.00000206      -0.02309628       0.03310871      -0.00000025      -0.06499949      -0.09294416       0.00000141       0.06783537       0.05274920      -0.00000105      -0.00000068      -0.00000080      -0.06645431       0.03845747      -0.05414837       0.00000008       0.05593032       0.03714399      -0.00000045      -0.00000078       0.00000075       0.08740008       0.06167647      -0.00148734       0.00000143       0.03558923      -0.05412236       0.00000017       0.02400263      -0.02976827       0.00000020       0.00088645      -0.00177144       0.00000002       0.00227723      -0.00180065       0.00000002
H        1.88463942      -0.90507852       0.00000778       0.00020082       0.00073673       0.53811572       0.09703735       0.35719953      -0.00182844       0.00049894       0.00109065       0.33046286       0.30146477      -0.14226034       0.00001445       0.14447025       0.30956370      -0.00121576      -0.00026638      -0.00096933      -0.00090119       0.00000059       0.00000194       0.23307647      -0.43632557      -0.34156017       0.00001489      -0.00000609      -0.00001150      -0.50700554       0.00000705       0.00000920       0.41959693      -0.47236960      -0.22168739       0.00001006      -0.01626530       0.01577872       0.00000648      -0.00000231      -0.00000855      -0.58216990       0.00000015       0.00000447       0.33735421      -0.36656492      -0.15534445       0.00000434       0.28381900       0.07238065      -0.00000267       0.30953970       0.17558235      -0.00000331       0.50221862       0.31278762      -0.00000532      -0.00000051      -0.00000025       0.00785570      -0.09464722      -0.07243036       0.00000109      -0.13273208      -0.38242244       0.00000535       0.00000005      -0.00000006       0.00115822      -0.00088359      -0.00031925       0.00000002      -0.00615041       0.00178240      -0.00000004       0.05555510      -0.08145464       0.00000104      -0.43687674       0.74057729      -0.00000962      -0.27468565       0.39782529      -0.00000513
H       -0.23399142      -2.11419043       0.00001729       0.00070593      -0.00015543       0.36305873       0.34619601      -0.07958179      -0.00255800       0.00049435       0.00109861       0.32599045       0.30143826      -0.14225807       0.00001411       0.15005919       0.29979053      -0.00125224      -0.00093261       0.00018720      -0.46600924      -0.00000689      -0.00000385      -0.46925614       0.44746140       0.21413364      -0.00000775       0.00000232       0.00000233       0.20154231       0.00000334       0.00000303       0.04307107      -0.34761455      -0.31773411       0.00000426      -0.26677602      -0.19412992       0.00000299      -0.00000146      -0.00000095      -0.11340080       0.00000100       0.00000126      -0.22354306       0.45836507       0.47221295      -0.00000522       0.00391538       0.04282083      -0.00000048       0.39725168       0.25599656      -0.00000634      -0.16645193      -0.10825259       0.00000369       0.00000621       0.00000551       0.74196506       0.35108926       0.21592322      -0.00000443      -0.12548377      -0.08390090       0.00000140       0.00000081      -0.00000118       0.04397779       0.01821361       0.00991341       0.00000069      -0.50889552       0.72263145      -0.00000125      -0.26399890       0.37243573      -0.00000055      -0.01413043       0.02252081      -0.00000005      -0.01965513       0.03332267      -0.00000006
H       -1.49182363      -1.22935930      -0.87911395       0.20882005      -0.23428890      -0.17014915       0.16311940      -0.33752247      -0.00034284       0.00031140       0.00529291       0.33049042       0.30144464      -0.14224112       0.00001851       0.14597954       0.29401296      -0.00122602       0.06609852       0.22902164      -0.33144970      -0.42846504       0.19563930       0.32291416       0.16695705      -0.20648541      -0.00310216      -0.12526894      -0.25148834       0.11390379      -0.04893748      -0.05583768       0.02928304      -0.02825802       0.17072241       0.01709254       0.13675795       0.52257700       0.02547820       0.17959664       0.25745183      -0.07841264       0.31522388       0.38550855      -0.14121190       0.05070072      -0.16363940      -0.04805605      -0.03579474      -0.11822441       0.00976134       0.21206361       0.42914227      -0.17565940      -0.19621613      -0.13395962       0.16600512      -0.14369518       0.44155666       0.07967050      -0.47952786       0.21451575       0.34973461       0.13336122       0.09258862      -0.08421098      -0.43349874       0.00070846      -0.55431358      -0.38984771      -0.00286100      -0.58649641       0.03623756      -0.02438416       0.02272482      -0.00854844      -0.01311136      -0.02842101       0.00056053      -0.00061765      -0.00125577      -0.00397790      -0.00153243      -0.00534727
H       -1.49180994      -1.22934703       0.87915533      -0.20815514       0.23292093      -0.17014922       0.16417573      -0.34042301      -0.00033685       0.00068411      -0.00308609       0.33049047       0.30144516      -0.14224256       0.00001189       0.14597911       0.29396412      -0.00122987      -0.06699152      -0.22726670      -0.33144542       0.42846782      -0.19563030       0.32291032       0.16695760      -0.20648941       0.00310189       0.12527246       0.25149297       0.11389829       0.04893809       0.05583439       0.02928182      -0.02826016       0.17072002      -0.01709538       0.13675889       0.52257775      -0.02548751      -0.17959660      -0.25745009      -0.07840637      -0.31522619      -0.38551430      -0.14120133       0.05070619      -0.16363516       0.04805930      -0.03579436      -0.11822430      -0.00975910       0.21206524       0.42914480       0.17564945      -0.19621809      -0.13396397      -0.16599980       0.14369773      -0.44155360       0.07967560      -0.47953323       0.21451043      -0.34973000       0.13336138       0.09258813       0.08420716       0.43350766      -0.00071605      -0.55434701      -0.38981965      -0.00285274       0.58647844       0.03623783      -0.02438449      -0.02272585      -0.00854635      -0.01311103       0.02841927       0.00056066      -0.00061764       0.00125563      -0.00397751      -0.00153235       0.00534702
9
Properties=species:S:1:pos:R:3:xtb2_normal_mode_displacements_0:R:3:xtb2_normal_mode_displacements_1:R:3:xtb2_normal_mode_displacements_2:R:3:xtb2_normal_mode_displacements_3:R:3:xtb2_normal_mode_displacements_4:R:3:xtb2_normal_mode_displacements_5:R:3:xtb2_normal_mode_displacements_6:R:3:xtb2_normal_mode_displacements_7:R:3:xtb2_normal_mode_displacements_8:R:3:xtb2_normal_mode_displacements_9:R:3:xtb2_normal_mode_displacements_10:R:3:xtb2_normal_mode_displacements_11:R:3:xtb2_normal_mode_displacements_12:R:3:xtb2_normal_mode_displacements_13:R:3:xtb2_normal_mode_displacements_14:R:3:xtb2_normal_mode_displacements_15:R:3:xtb2_normal_mode_displacements_16:R:3:xtb2_normal_mode_displacements_17:R:3:xtb2_normal_mode_displacements_18:R:3:xtb2_normal_mode_displacements_19:R:3:xtb2_normal_mode_displacements_20:R:3:xtb2_normal_mode_displacements_21:R:3:xtb2_normal_mode_displacements_22:R:3:xtb2_normal_mode_displacements_23:R:3:xtb2_normal_mode_displacements_24:R:3:xtb2_normal_mode_displacements_25:R:3:xtb2_normal_mode_displacements_26:R:3 propene=T reference=T _ConfigSet_loc=" / 0 / 0" xtb2_normal_mode_frequencies="-0.0019461934127446617 -0.0012160035104524494 -9.93123452020089e-06 -1.3014229096056314e-06 2.01829311176581e-05 0.001182055215837519 0.020396585011163454 0.052646472270038644 0.0720661965517159 0.1107921441650487 0.11576844989559419 0.12116217101615684 0.12587386431539677 0.1301292403266887 0.14503383082407395 0.16000746051012865 0.17305063547571045 0.17607711388641958 0.183235233322014 0.184200200995007 0.21403806997450184 0.37170880543951323 0.3735009117214228 0.376824539972782 0.37858381524906215 0.3840148551557691 0.3873825460436433" pbc="F F F"
C        0.01226471       0.02997602      -0.00000065      -0.00018484      -0.00006232      -0.14700365      -0.09212380      -0.03163889       0.00081388       0.00050246       0.00109785       0.33605481       0.30146046      -0.14226065       0.00001578       0.14025167       0.30087247      -0.00119299       0.00023600       0.00006442       0.10304089       0.00000042      -0.00000132      -0.09430485      -0.09701738       0.17667746      -0.00000038      -0.00000087      -0.00000076      -0.13912814       0.00000008       0.00000090       0.07919680       0.02104941       0.02966821       0.00000061      -0.03805961      -0.10937999       0.00000192      -0.00000012      -0.00000060       0.00351711      -0.00000039      -0.00000203      -0.13318641       0.01034389      -0.22655967       0.00000343       0.00440973       0.07800001      -0.00000119      -0.04011031       0.00509104      -0.00000001      -0.08035350      -0.03517561       0.00000065       0.00000006       0.00000011      -0.01181682       0.00207009       0.00179519      -0.00000008      -0.52029516      -0.07716670       0.00000223      -0.00000008      -0.00000001       0.00192081       0.00093338       0.00529737      -0.00000003      -0.01922576       0.02908937      -0.00000034       0.03965149      -0.06032606       0.00000069      -0.00279413      -0.00354144       0.00000005       0.00684677      -0.01257639       0.00000013
C        1.33465791       0.07832264      -0.00000622      -0.00018444       0.00049407       0.16225851      -0.09229575       0.24032147       0.00002729       0.00050246       0.00109289       0.33530478       0.30146107      -0.14226385       0.00001538       0.14024844       0.30695895      -0.00119132       0.00023668      -0.00065616       0.19773506       0.00000082      -0.00000001       0.06913106      -0.10338774      -0.13436733       0.00000243      -0.00000062      -0.00000078       0.05006226      -0.00000048      -0.00000321      -0.15622235       0.02603792       0.10545320      -0.00000324      -0.11657114      -0.05848917       0.00000053      -0.00000070       0.00000034       0.03113218      -0.00000031      -0.00000060      -0.03415752      -0.00174871       0.09787693      -0.00000182       0.07372617      -0.06808843       0.00000095      -0.00961938      -0.00573576       0.00000012      -0.03655727       0.01011078      -0.00000011       0.00000001      -0.00000009      -0.00100521       0.02851820      -0.00007918      -0.00000005       0.46282307       0.00614317      -0.00000123       0.00000003       0.00000000       0.00022002      -0.00109131       0.00058150       0.00000000       0.00036708      -0.00042689       0.00000001      -0.00315517       0.01095426      -0.00000016       0.06134740      -0.02404248       0.00000021      -0.01797284      -0.09123604       0.00000138
H       -0.59756524       0.92061816      -0.00001167      -0.00057720      -0.00029473      -0.52278016      -0.28517891      -0.14391174       0.00268754       0.00050597       0.00109994       0.34095234       0.30146798      -0.14225445       0.00001672       0.13592192       0.29835260      -0.00116794       0.00074992       0.00036575       0.30808101       0.00000137      -0.00000242      -0.24110632      -0.06379115       0.18204692      -0.00000890       0.00000057       0.00000595       0.37562491       0.00000247      -0.00000208      -0.29747072      -0.28749309      -0.14771481       0.00000010      -0.24737010      -0.23404283       0.00000714      -0.00000213      -0.00000894      -0.62138682       0.00000082       0.00000566       0.47327106      -0.18966448      -0.32053687       0.00000252      -0.83076652      -0.41407775       0.00000666      -0.05110253      -0.00069595      -0.00000027       0.09153297       0.06641310      -0.00000098      -0.00000014       0.00000042       0.03009094      -0.02893096      -0.01630472      -0.00000006       0.09341611       0.32206185      -0.00000491      -0.00000001       0.00000001      -0.00098587       0.03079063      -0.05370249       0.00000054       0.22840772      -0.39451688       0.00000451      -0.44272279       0.75396366      -0.00000866      -0.01545228       0.03002717      -0.00000033      -0.05873820       0.10694769      -0.00000121
H        1.98489486       0.88413475      -0.00001711      -0.00056703       0.00073225       0.05450902      -0.28056468       0.35838396       0.00119407       0.00050595       0.00109076       0.33947353       0.30145500      -0.14225979       0.00001596       0.13604797       0.30959084      -0.00116561       0.00073719      -0.00096564       0.47690998       0.00000128      -0.00000084       0.03668975       0.23220889      -0.34684761      -0.00000078       0.00000504       0.00000419       0.59610778      -0.00000412       0.00001505       0.83068971       0.52058993      -0.22168509       0.00000934      -0.31916403       0.06610723      -0.00000275      -0.00000050       0.00000307       0.21615231       0.00000030       0.00000279       0.20483697       0.31488038      -0.13019483       0.00000036      -0.04121456       0.02269696       0.00000009       0.28728469      -0.17396768       0.00000185       0.54988296      -0.33291287       0.00000335      -0.00000080       0.00000049       0.00539027      -0.09119498       0.06857005      -0.00000064      -0.08357487       0.36277264      -0.00000453       0.00000000      -0.00000001      -0.00243314      -0.00149107      -0.00250474      -0.00000001       0.01480606       0.02224586      -0.00000033      -0.05262717      -0.07570769       0.00000120      -0.24292805      -0.44209991       0.00000693       0.46647478       0.72342613      -0.00001153
C       -0.84345416      -1.27169467       0.00001611       0.00032843      -0.00041438      -0.02071977       0.16106191      -0.20620780      -0.00070711       0.00049781       0.00110099       0.33041712       0.30145177      -0.14225113       0.00001502       0.14592482       0.29696487      -0.00122747      -0.00043924       0.00052502      -0.27943326      -0.00000117       0.00000102       0.00809838       0.15731822       0.01686223      -0.00000178       0.00000104       0.00000107       0.01404126      -0.00000038       0.00000047      -0.01146581       0.00690840      -0.08751194       0.00000088       0.20297140       0.10921681      -0.00000283       0.00000136       0.00000140       0.07089068       0.00000070       0.00000192       0.12458419      -0.03531808       0.16738018      -0.00000206      -0.02309628       0.03310871      -0.00000025      -0.06499949      -0.09294416       0.00000141       0.06783537       0.05274920      -0.00000105      -0.00000068      -0.00000080      -0.06645431       0.03845747      -0.05414837       0.00000008       0.05593032       0.03714399      -0.00000045      -0.00000078       0.00000075       0.08740008       0.06167647      -0.00148734       0.00000143       0.03558923      -0.05412236       0.00000017       0.02400263      -0.02976827       0.00000020       0.00088645      -0.00177144       0.00000002       0.00227723      -0.00180065       0.00000002
H        1.79887567      -0.94532823       0.00000961       0.00020082       0.00073673       0.53811572       0.09703735       0.35719953      -0.00182844       0.00049894       0.00109065       0.33046286       0.30146477      -0.14226034       0.00001445       0.14447025       0.30956370      -0.00121576      -0.00026638      -0.00096933      -0.00090119       0.00000059       0.00000194       0.23307647      -0.43632557      -0.34156017       0.00001489      -0.00000609      -0.00001150      -0.50700554       0.00000705       0.00000920       0.41959693      -0.47236960      -0.22168739       0.00001006      -0.01626530       0.01577872       0.00000648      -0.00000231      -0.00000855      -0.58216990       0.00000015       0.00000447       0.33735421      -0.36656492      -0.15534445       0.00000434       0.28381900       0.07238065      -0.00000267       0.30953970       0.17558235      -0.00000331       0.50221862       0.31278762      -0.00000532      -0.00000051      -0.00000025       0.00785570      -0.09464722      -0.07243036       0.00000109      -0.13273208      -0.38242244       0.00000535       0.00000005      -0.00000006       0.00115822      -0.00088359      -0.00031925       0.00000002      -0.00615041       0.00178240      -0.00000004       0.05555510      -0.08145464       0.00000104      -0.43687674       0.74057729      -0.00000962      -0.27468565       0.39782529      -0.00000513
H       -0.29710456      -2.17187845       0.00001806       0.00070593      -0.00015543       0.36305873       0.34619601      -0.07958179      -0.00255800       0.00049435       0.00109861       0.32599045       0.30143826      -0.14225807       0.00001411       0.15005919       0.29979053      -0.00125224      -0.00093261       0.00018720      -0.46600924      -0.00000689      -0.00000385      -0.46925614       0.44746140       0.21413364      -0.00000775       0.00000232       0.00000233       0.20154231       0.00000334       0.00000303       0.04307107      -0.34761455      -0.31773411       0.00000426      -0.26677602      -0.19412992       0.00000299      -0.00000146      -0.00000095      -0.11340080       0.00000100       0.00000126      -0.22354306       0.45836507       0.47221295      -0.00000522       0.00391538       0.04282083      -0.00000048       0.39725168       0.25599656      -0.00000634      -0.16645193      -0.10825259       0.00000369       0.00000621       0.00000551       0.74196506       0.35108926       0.21592322      -0.00000443      -0.12548377      -0.08390090       0.00000140       0.00000081      -0.00000118       0.04397779       0.01821361       0.00991341       0.00000069      -0.50889552       0.72263145      -0.00000125      -0.26399890       0.37243573      -0.00000055      -0.01413043       0.02252081      -0.00000005      -0.01965513       0.03332267      -0.00000006
H       -1.49695418      -1.19836282      -0.87601062       0.20882005      -0.23428890      -0.17014915       0.16311940      -0.33752247      -0.00034284       0.00031140       0.00529291       0.33049042       0.30144464      -0.14224112       0.00001851       0.14597954       0.29401296      -0.00122602       0.06609852       0.22902164      -0.33144970      -0.42846504       0.19563930       0.32291416       0.16695705      -0.20648541      -0.00310216      -0.12526894      -0.25148834       0.11390379      -0.04893748      -0.05583768       0.02928304      -0.02825802       0.17072241       0.01709254       0.13675795       0.52257700       0.02547820       0.17959664       0.25745183      -0.07841264       0.31522388       0.38550855      -0.14121190       0.05070072      -0.16363940      -0.04805605      -0.03579474      -0.11822441       0.00976134       0.21206361       0.42914227      -0.17565940      -0.19621613      -0.13395962       0.16600512      -0.14369518       0.44155666       0.07967050      -0.47952786       0.21451575       0.34973461       0.13336122       0.09258862      -0.08421098      -0.43349874       0.00070846      -0.55431358      -0.38984771      -0.00286100      -0.58649641       0.03623756      -0.02438416       0.02272482      -0.00854844      -0.01311136      -0.02842101       0.00056053      -0.00061765      -0.00125577      -0.00397790      -0.00153243      -0.00534727
H       -1.49694087      -1.19835099       0.87605148      -0.20815514       0.23292093      -0.17014922       0.16417573      -0.34042301      -0.00033685       0.00068411      -0.00308609       0.33049047       0.30144516      -0.14224256       0.00001189       0.14597911       0.29396412      -0.00122987      -0.06699152      -0.22726670      -0.33144542       0.42846782      -0.19563030       0.32291032       0.16695760      -0.20648941       0.00310189       0.12527246       0.25149297       0.11389829       0.04893809       0.05583439       0.02928182      -0.02826016       0.17072002      -0.01709538       0.13675889       0.52257775      -0.02548751      -0.17959660      -0.25745009      -0.07840637      -0.31522619      -0.38551430      -0.14120133       0.05070619      -0.16363516       0.04805930      -0.03579436      -0.11822430      -0.00975910       0.21206524       0.42914480       0.17564945      -0.19621809      -0.13396397      -0.16599980       0.14369773      -0.44155360       0.07967560      -0.47953323       0.21451043      -0.34973000       0.13336138       0.09258813       0.08420716       0.43350766      -0.00071605      -0.55434701      -0.38981965      -0.00285274       0.58647844       0.03623783      -0.02438449      -0.02272585      -0.00854635      -0.01311103       0.02841927       0.00056066      -0.00061764       0.00125563      -0.00397751      -0.00153235       0.00534702
9
Properties=species:S:1:pos:R:3:xtb2_normal_mode_displacements_0:R:3:xtb2_normal_mode_displacements_1:R:3:xtb2_normal_mode_displacements_2:R:3:xtb2_normal_mode_displacements_3:R:3:xtb2_normal_mode_displacements_4:R:3:xtb2_normal_mode_displacements_5:R:3:xtb2_normal_mode_displacements_6:R:3:xtb2_normal_mode_displacements_7:R:3:xtb2_normal_mode_displacements_8:R:3:xtb2_normal_mode_displacements_9:R:3:xtb2_normal_mode_displacements_10:R:3:xtb2_normal_mode_displacements_11:R:3:xtb2_normal_mode_displacements_12:R:3:xtb2_normal_mode_displacements_13:R:3:xtb2_normal_mode_displacements_14:R:3:xtb2_normal_mode_displacements_15:R:3:xtb2_normal_mode_displacements_16:R:3:xtb2_normal_mode_displacements_17:R:3:xtb2_normal_mode_displacements_18:R:3:xtb2_normal_mode_displacements_19:R:3:xtb2_normal_mode_displacements_20:R:3:xtb2_normal_mode_displacements_21:R:3:xtb2_normal_mode_displacements_22:R:3:xtb2_normal_mode_displacements_23:R:3:xtb2_normal_mode_displacements_24:R:3:xtb2_normal_mode_displacements_25:R:3:xtb2_normal_mode_displacements_26:R:3 propene=T reference=T _ConfigSet_loc=" / 0 / 0" xtb2_normal_mode_frequencies="-0.0019461934127446617 -0.0012160035104524494 -9.93123452020089e-06 -1.3014229096056314e-06 2.01829311176581e-05 0.001182055215837519 0.020396585011163454 0.052646472270038644 0.0720661965517159 0.1107921441650487 0.11576844989559419 0.12116217101615684 0.12587386431539677 0.1301292403266887 0.14503383082407395 0.16000746051012865 0.17305063547571045 0.17607711388641958 0.183235233322014 0.184200200995007 0.21403806997450184 0.37170880543951323 0.3735009117214228 0.376824539972782 0.37858381524906215 0.3840148551557691 0.3873825460436433" pbc="F F F"
C        0.02344861       0.04573923      -0.00000032      -0.00018484      -0.00006232      -0.14700365      -0.09212380      -0.03163889       0.00081388       0.00050246       0.00109785       0.33605481       0.30146046      -0.14226065       0.00001578       0.14025167       0.30087247      -0.00119299       0.00023600       0.00006442       0.10304089       0.00000042      -0.00000132      -0.09430485      -0.09701738       0.17667746      -0.00000038      -0.00000087      -0.00000076      -0.13912814       0.00000008       0.00000090       0.07919680       0.02104941       0.02966821       0.00000061      -0.03805961      -0.10937999       0.00000192      -0.00000012      -0.00000060       0.00351711      -0.00000039      -0.00000203      -0.13318641       0.01034389      -0.22655967       0.00000343       0.00440973       0.07800001      -0.00000119      -0.04011031       0.00509104      -0.00000001      -0.08035350      -0.03517561       0.00000065       0.00000006       0.00000011      -0.01181682       0.00207009       0.00179519      -0.00000008      -0.52029516      -0.07716670       0.00000223      -0.00000008      -0.00000001       0.00192081       0.00093338       0.00529737      -0.00000003      -0.01922576       0.02908937      -0.00000034       0.03965149      -0.06032606       0.00000069      -0.00279413      -0.00354144       0.00000005       0.00684677      -0.01257639       0.00000013
C        1.34849230       0.13435170      -0.00000794      -0.00018444       0.00049407       0.16225851      -0.09229575       0.24032147       0.00002729       0.00050246       0.00109289       0.33530478       0.30146107      -0.14226385       0.00001538       0.14024844       0.30695895      -0.00119132       0.00023668      -0.00065616       0.19773506       0.00000082      -0.00000001       0.06913106      -0.10338774      -0.13436733       0.00000243      -0.00000062      -0.00000078       0.05006226      -0.00000048      -0.00000321      -0.15622235       0.02603792       0.10545320      -0.00000324      -0.11657114      -0.05848917       0.00000053      -0.00000070       0.00000034       0.03113218      -0.00000031      -0.00000060      -0.03415752      -0.00174871       0.09787693      -0.00000182       0.07372617      -0.06808843       0.00000095      -0.00961938      -0.00573576       0.00000012      -0.03655727       0.01011078      -0.00000011       0.00000001      -0.00000009      -0.00100521       0.02851820      -0.00007918      -0.00000005       0.46282307       0.00614317      -0.00000123       0.00000003       0.00000000       0.00022002      -0.00109131       0.00058150       0.00000000       0.00036708      -0.00042689       0.00000001      -0.00315517       0.01095426      -0.00000016       0.06134740      -0.02404248       0.00000021      -0.01797284      -0.09123604       0.00000138
H       -0.64181610       0.89788194      -0.00001166      -0.00057720      -0.00029473      -0.52278016      -0.28517891      -0.14391174       0.00268754       0.00050597       0.00109994       0.34095234       0.30146798      -0.14225445       0.00001672       0.13592192       0.29835260      -0.00116794       0.00074992       0.00036575       0.30808101       0.00000137      -0.00000242      -0.24110632      -0.06379115       0.18204692      -0.00000890       0.00000057       0.00000595       0.37562491       0.00000247      -0.00000208      -0.29747072      -0.28749309      -0.14771481       0.00000010      -0.24737010      -0.23404283       0.00000714      -0.00000213      -0.00000894      -0.62138682       0.00000082       0.00000566       0.47327106      -0.18966448      -0.32053687       0.00000252      -0.83076652      -0.41407775       0.00000666      -0.05110253      -0.00069595      -0.00000027       0.09153297       0.06641310      -0.00000098      -0.00000014       0.00000042       0.03009094      -0.02893096      -0.01630472      -0.00000006       0.09341611       0.32206185      -0.00000491      -0.00000001       0.00000001      -0.00098587       0.03079063      -0.05370249       0.00000054       0.22840772      -0.39451688       0.00000451      -0.44272279       0.75396366      -0.00000866      -0.01545228       0.03002717      -0.00000033      -0.05873820       0.10694769      -0.00000121
H        2.06502392       0.85001305      -0.00001568      -0.00056703       0.00073225       0.05450902      -0.28056468       0.35838396       0.00119407       0.00050595       0.00109076       0.33947353       0.30145500      -0.14225979       0.00001596       0.13604797       0.30959084      -0.00116561       0.00073719      -0.00096564       0.47690998       0.00000128      -0.00000084       0.03668975       0.23220889      -0.34684761      -0.00000078       0.00000504       0.00000419       0.59610778      -0.00000412       0.00001505       0.83068971       0.52058993      -0.22168509       0.00000934      -0.31916403       0.06610723      -0.00000275      -0.00000050       0.00000307       0.21615231       0.00000030       0.00000279       0.20483697       0.31488038      -0.13019483       0.00000036      -0.04121456       0.02269696       0.00000009       0.28728469      -0.17396768       0.00000185       0.54988296      -0.33291287       0.00000335      -0.00000080       0.00000049       0.00539027      -0.09119498       0.06857005      -0.00000064      -0.08357487       0.36277264      -0.00000453       0.00000000      -0.00000001      -0.00243314      -0.00149107      -0.00250474      -0.00000001       0.01480606       0.02224586      -0.00000033      -0.05262717      -0.07570769       0.00000120      -0.24292805      -0.44209991       0.00000693       0.46647478       0.72342613      -0.00001153
C       -0.83978361      -1.31819124       0.00001658       0.00032843      -0.00041438      -0.02071977       0.16106191      -0.20620780      -0.00070711       0.00049781       0.00110099       0.33041712       0.30145177      -0.14225113       0.00001502       0.14592482       0.29696487      -0.00122747      -0.00043924       0.00052502      -0.27943326      -0.00000117       0.00000102       0.00809838       0.15731822       0.01686223      -0.00000178       0.00000104       0.00000107       0.01404126      -0.00000038       0.00000047      -0.01146581       0.00690840      -0.08751194       0.00000088       0.20297140       0.10921681      -0.00000283       0.00000136       0.00000140       0.07089068       0.00000070       0.00000192       0.12458419      -0.03531808       0.16738018      -0.00000206      -0.02309628       0.03310871      -0.00000025      -0.06499949      -0.09294416       0.00000141       0.06783537       0.05274920      -0.00000105      -0.00000068      -0.00000080      -0.06645431       0.03845747      -0.05414837       0.00000008       0.05593032       0.03714399      -0.00000045      -0.00000078       0.00000075       0.08740008       0.06167647      -0.00148734       0.00000143       0.03558923      -0.05412236       0.00000017       0.02400263      -0.02976827       0.00000020       0.00088645      -0.00177144       0.00000002       0.00227723      -0.00180065       0.00000002
H        1.72616868      -0.97945030       0.00001115       0.00020082       0.00073673       0.53811572       0.09703735       0.35719953      -0.00182844       0.00049894       0.00109065       0.33046286       0.30146477      -0.14226034       0.00001445       0.14447025       0.30956370      -0.00121576      -0.00026638      -0.00096933      -0.00090119       0.00000059       0.00000194       0.23307647      -0.43632557      -0.34156017       0.00001489      -0.00000609      -0.00001150      -0.50700554       0.00000705       0.00000920       0.41959693      -0.47236960      -0.22168739       0.00001006      -0.01626530       0.01577872       0.00000648      -0.00000231      -0.00000855      -0.58216990       0.00000015       0.00000447       0.33735421      -0.36656492      -0.15534445       0.00000434       0.28381900       0.07238065      -0.00000267       0.30953970       0.17558235      -0.00000331       0.50221862       0.31278762      -0.00000532      -0.00000051      -0.00000025       0.00785570      -0.09464722      -0.07243036       0.00000109      -0.13273208      -0.38242244       0.00000535       0.00000005      -0.00000006       0.00115822      -0.00088359      -0.00031925       0.00000002      -0.00615041       0.00178240      -0.00000004       0.05555510      -0.08145464       0.00000104      -0.43687674       0.74057729      -0.00000962      -0.27468565       0.39782529      -0.00000513
H       -0.35060929      -2.22078400       0.00001872       0.00070593      -0.00015543       0.36305873       0.34619601      -0.07958179      -0.00255800       0.00049435       0.00109861       0.32599045       0.30143826      -0.14225807       0.00001411       0.15005919       0.29979053      -0.00125224      -0.00093261       0.00018720      -0.46600924      -0.00000689      -0.00000385      -0.46925614       0.44746140       0.21413364      -0.00000775       0.00000232       0.00000233       0.20154231       0.00000334       0.00000303       0.04307107      -0.34761455      -0.31773411       0.00000426      -0.26677602      -0.19412992       0.00000299      -0.00000146      -0.00000095      -0.11340080       0.00000100       0.00000126      -0.22354306       0.45836507       0.47221295      -0.00000522       0.00391538       0.04282083      -0.00000048       0.39725168       0.25599656      -0.00000634      -0.16645193      -0.10825259       0.00000369       0.00000621       0.00000551       0.74196506       0.35108926       0.21592322      -0.00000443      -0.12548377      -0.08390090       0.00000140       0.00000081      -0.00000118       0.04397779       0.01821361       0.00991341       0.00000069      -0.50889552       0.72263145      -0.00000125      -0.26399890       0.37243573      -0.00000055      -0.01413043       0.02252081      -0.00000005      -0.01965513       0.03332267      -0.00000006
H       -1.50130364      -1.17208528      -0.87337974       0.20882005      -0.23428890      -0.17014915       0.16311940      -0.33752247      -0.00034284       0.00031140       0.00529291       0.33049042       0.30144464      -0.14224112       0.00001851       0.14597954       0.29401296      -0.00122602       0.06609852       0.22902164      -0.33144970      -0.42846504       0.19563930       0.32291416       0.16695705      -0.20648541      -0.00310216      -0.12526894      -0.25148834       0.11390379      -0.04893748      -0.05583768       0.02928304      -0.02825802       0.17072241       0.01709254       0.13675795       0.52257700       0.02547820       0.17959664       0.25745183      -0.07841264       0.31522388       0.38550855      -0.14121190       0.05070072      -0.16363940      -0.04805605      -0.03579474      -0.11822441       0.00976134       0.21206361       0.42914227      -0.17565940      -0.19621613      -0.13395962       0.16600512      -0.14369518       0.44155666       0.07967050      -0.47952786       0.21451575       0.34973461       0.13336122       0.09258862      -0.08421098      -0.43349874       0.00070846      -0.55431358      -0.38984771      -0.00286100      -0.58649641       0.03623756      -0.02438416       0.02272482      -0.00854844      -0.01311136      -0.02842101       0.00056053      -0.00061765      -0.00125577      -0.00397790      -0.00153243      -0.00534727
H       -1.50129067      -1.17207381       0.87342017      -0.20815514       0.23292093      -0.17014922       0.16417573      -0.34042301      -0.00033685       0.00068411      -0.00308609       0.33049047       0.30144516      -0.14224256       0.00001189       0.14597911       0.29396412      -0.00122987      -0.06699152      -0.22726670      -0.33144542       0.42846782      -0.19563030       0.32291032       0.16695760      -0.20648941       0.00310189       0.12527246       0.25149297       0.11389829       0.04893809       0.05583439       0.02928182      -0.02826016       0.17072002      -0.01709538       0.13675889       0.52257775      -0.02548751      -0.17959660      -0.25745009      -0.07840637      -0.31522619      -0.38551430      -0.14120133       0.05070619      -0.16363516       0.04805930      -0.03579436      -0.11822430      -0.00975910       0.21206524       0.42914480       0.17564945      -0.19621809      -0.13396397      -0.16599980       0.14369773      -0.44155360       0.07967560      -0.47953323       0.21451043      -0.34973000       0.13336138       0.09258813       0.08420716       0.43350766      -0.00071605      -0.55434701      -0.38981965      -0.00285274       0.58647844       0.03623783      -0.02438449      -0.02272585      -0.00854635      -0.01311103       0.02841927       0.00056066      -0.00061764       0.00125563      -0.00397751      -0.00153235       0.00534702
9
Properties=species:S:1:pos:R:3:xtb2_normal_mode_displacements_0:R:3:xtb2_normal_mode_displacements_1:R:3:xtb2_normal_mode_displacements_2:R:3:xtb2_normal_mode_displacements_3:R:3:xtb2_normal_mode_displacements_4:R:3:xtb2_normal_mode_displacements_5:R:3:xtb2_normal_mode_displacements_6:R:3:xtb2_normal_mode_displacements_7:R:3:xtb2_normal_mode_displacements_8:R:3:xtb2_normal_mode_displacements_9:R:3:xtb2_normal_mode_displacements_10:R:3:xtb2_normal_mode_displacements_11:R:3:xtb2_normal_mode_displacements_12:R:3:xtb2_normal_mode_displacements_13:R:3:xtb2_normal_mode_displacements_14:R:3:xtb2_normal_mode_displacements_15:R:3:xtb2_normal_mode_displacements_16:R:3:xtb2_normal_mode_displacements_17:R:3:xtb2_normal_mode_displacements_18:R:3:xtb2_normal_mode_displacements_19:R:3:xtb2_normal_mode_displacements_20:R:3:xtb2_normal_mode_displacements_21:R:3:xtb2_normal_mode_displacements_22:R:3:xtb2_normal_mode_displacements_23:R:3:xtb2_normal_mode_displacements_24:R:3:xtb2_normal_mode_displacements_25:R:3:xtb2_normal_mode_displacements_26:R:3 propene=T reference=T _ConfigSet_loc=" / 0 / 0" xtb2_normal_mode_frequencies="-0.0019461934127446617 -0.0012160035104524494 -9.93123452020089e-06 -1.3014229096056314e-06 2.01829311176581e-05 0.001182055215837519 0.020396585011163454 0.052646472270038644 0.0720661965517159 0.1107921441650487 0.11576844989559419 0.12116217101615684 0.12587386431539677 0.1301292403266887 0.14503383082407395 0.16000746051012865 0.17305063547571045 0.17607711388641958 0.183235233322014 0.184200200995007 0.21403806997450184 0.37170880543951323 0.3735009117214228 0.376824539972782 0.37858381524906215 0.3840148551557691 0.3873825460436433" pbc="F F F"
C        0.03092146       0.05627188      -0.00000011      -0.00018484      -0.00006232      -0.14700365      -0.09212380      -0.03163889       0.00081388       0.00050246       0.00109785       0.33605481       0.30146046      -0.14226065       0.00001578       0.14025167       0.30087247      -0.00119299       0.00023600       0.00006442       0.10304089       0.00000042      -0.00000132      -0.09430485      -0.09701738       0.17667746      -0.00000038      -0.00000087      -0.00000076      -0.13912814       0.00000008       0.00000090       0.07919680       0.02104941       0.02966821       0.00000061      -0.03805961      -0.10937999       0.00000192      -0.00000012      -0.00000060       0.00351711      -0.00000039      -0.00000203      -0.13318641       0.01034389      -0.22655967       0.00000343       0.00440973       0.07800001      -0.00000119      -0.04011031       0.00509104      -0.00000001      -0.08035350      -0.03517561       0.00000065       0.00000006       0.00000011      -0.01181682       0.00207009       0.00179519      -0.00000008      -0.52029516      -0.07716670       0.00000223      -0.00000008      -0.00000001       0.00192081       0.00093338       0.00529737      -0.00000003      -0.01922576       0.02908937      -0.00000034       0.03965149      -0.06032606       0.00000069      -0.00279413      -0.00354144       0.00000005       0.00684677      -0.01257639       0.00000013
C        1.35773614       0.17178912      -0.00000909      -0.00018444       0.00049407       0.16225851      -0.09229575       0.24032147       0.00002729       0.00050246       0.00109289       0.33530478       0.30146107      -0.14226385       0.00001538       0.14024844       0.30695895      -0.00119132       0.00023668      -0.00065616       0.19773506       0.00000082      -0.00000001       0.06913106      -0.10338774      -0.13436733       0.00000243      -0.00000062      -0.00000078       0.05006226      -0.00000048      -0.00000321      -0.15622235       0.02603792       0.10545320      -0.00000324      -0.11657114      -0.05848917       0.00000053      -0.00000070       0.00000034       0.03113218      -0.00000031      -0.00000060      -0.03415752      -0.00174871       0.09787693      -0.00000182       0.07372617      -0.06808843       0.00000095      -0.00961938      -0.00573576       0.00000012      -0.03655727       0.01011078      -0.00000011       0.00000001      -0.00000009      -0.00100521       0.02851820      -0.00007918      -0.00000005       0.46282307       0.00614317      -0.00000123       0.00000003       0.00000000       0.00022002      -0.00109131       0.00058150       0.00000000       0.00036708      -0.00042689       0.00000001      -0.00315517       0.01095426      -0.00000016       0.06134740      -0.02404248       0.00000021      -0.01797284      -0.09123604       0.00000138
H       -0.67138357       0.88269008      -0.00001165      -0.00057720      -0.00029473      -0.52278016      -0.28517891      -0.14391174       0.00268754       0.00050597       0.00109994       0.34095234       0.30146798      -0.14225445       0.00001672       0.13592192       0.29835260      -0.00116794       0.00074992       0.00036575       0.30808101       0.00000137      -0.00000242      -0.24110632      -0.06379115       0.18204692      -0.00000890       0.00000057       0.00000595       0.37562491       0.00000247      -0.00000208      -0.29747072      -0.28749309      -0.14771481       0.00000010      -0.24737010      -0.23404283       0.00000714      -0.00000213      -0.00000894      -0.62138682       0.00000082       0.00000566       0.47327106      -0.18966448      -0.32053687       0.00000252      -0.83076652      -0.41407775       0.00000666      -0.05110253      -0.00069595      -0.00000027       0.09153297       0.06641310      -0.00000098      -0.00000014       0.00000042       0.03009094      -0.02893096      -0.01630472      -0.00000006       0.09341611       0.32206185      -0.00000491      -0.00000001       0.00000001      -0.00098587       0.03079063      -0.05370249       0.00000054       0.22840772      -0.39451688       0.00000451      -0.44272279       0.75396366      -0.00000866      -0.01545228       0.03002717      -0.00000033      -0.05873820       0.10694769      -0.00000121
H        2.11856444       0.82721365      -0.00001472      -0.00056703       0.00073225       0.05450902      -0.28056468       0.35838396       0.00119407       0.00050595       0.00109076       0.33947353       0.30145500      -0.14225979       0.00001596       0.13604797       0.30959084      -0.00116561       0.00073719      -0.00096564       0.47690998       0.00000128      -0.00000084       0.03668975       0.23220889      -0.34684761      -0.00000078       0.00000504       0.00000419       0.59610778      -0.00000412       0.00001505       0.83068971       0.52058993      -0.22168509       0.00000934      -0.31916403       0.06610723      -0.00000275      -0.00000050       0.00000307       0.21615231       0.00000030       0.00000279       0.20483697       0.31488038      -0.13019483       0.00000036      -0.04121456       0.02269696       0.00000009       0.28728469      -0.17396768       0.00000185       0.54988296      -0.33291287       0.00000335      -0.00000080       0.00000049       0.00539027      -0.09119498       0.06857005      -0.00000064      -0.08357487       0.36277264      -0.00000453       0.00000000      -0.00000001      -0.00243314      -0.00149107      -0.00250474      -0.00000001       0.01480606       0.02224586      -0.00000033      -0.05262717      -0.07570769       0.00000120      -0.24292805      -0.44209991       0.00000693       0.46647478       0.72342613      -0.00001153
C       -0.83733103      -1.34925925       0.00001689       0.00032843      -0.00041438      -0.02071977       0.16106191      -0.20620780      -0.00070711       0.00049781       0.00110099       0.33041712       0.30145177      -0.14225113       0.00001502       0.14592482       0.29696487      -0.00122747      -0.00043924       0.00052502      -0.27943326      -0.00000117       0.00000102       0.00809838       0.15731822       0.01686223      -0.00000178       0.00000104       0.00000107       0.01404126      -0.00000038       0.00000047      -0.01146581       0.00690840      -0.08751194       0.00000088       0.20297140       0.10921681      -0.00000283       0.00000136       0.00000140       0.07089068       0.00000070       0.00000192       0.12458419      -0.03531808       0.16738018      -0.00000206      -0.02309628       0.03310871      -0.00000025      -0.06499949      -0.09294416       0.00000141       0.06783537       0.05274920      -0.00000105      -0.00000068      -0.00000080      -0.06645431       0.03845747      -0.05414837       0.00000008       0.05593032       0.03714399      -0.00000045      -0.00000078       0.00000075       0.08740008       0.06167647      -0.00148734       0.00000143       0.03558923      -0.05412236       0.00000017       0.02400263      -0.02976827       0.00000020       0.00088645      -0.00177144       0.00000002       0.00227723      -0.00180065       0.00000002
H        1.67758741      -1.00224993       0.00001219       0.00020082       0.00073673       0.53811572       0.09703735       0.35719953      -0.00182844       0.00049894       0.00109065       0.33046286       0.30146477      -0.14226034       0.00001445       0.14447025       0.30956370      -0.00121576      -0.00026638      -0.00096933      -0.00090119       0.00000059       0.00000194       0.23307647      -0.43632557      -0.34156017       0.00001489      -0.00000609      -0.00001150      -0.50700554       0.00000705       0.00000920       0.41959693      -0.47236960      -0.22168739       0.00001006      -0.01626530       0.01577872       0.00000648      -0.00000231      -0.00000855      -0.58216990       0.00000015       0.00000447       0.33735421      -0.36656492      -0.15534445       0.00000434       0.28381900       0.07238065      -0.00000267       0.30953970       0.17558235      -0.00000331       0.50221862       0.31278762      -0.00000532      -0.00000051      -0.00000025       0.00785570      -0.09464722      -0.07243036       0.00000109      -0.13273208      -0.38242244       0.00000535       0.00000005      -0.00000006       0.00115822      -0.00088359      -0.00031925       0.00000002      -0.00615041       0.00178240      -0.00000004       0.05555510      -0.08145464       0.00000104      -0.43687674       0.74057729      -0.00000962      -0.27468565       0.39782529      -0.00000513
H       -0.38636001      -2.25346164       0.00001916       0.00070593      -0.00015543       0.36305873       0.34619601      -0.07958179      -0.00255800       0.00049435       0.00109861       0.32599045       0.30143826      -0.14225807       0.00001411       0.15005919       0.29979053      -0.00125224      -0.00093261       0.00018720      -0.46600924      -0.00000689      -0.00000385      -0.46925614       0.44746140       0.21413364      -0.00000775       0.00000232       0.00000233       0.20154231       0.00000334       0.00000303       0.04307107      -0.34761455      -0.31773411       0.00000426      -0.26677602      -0.19412992       0.00000299      -0.00000146      -0.00000095      -0.11340080       0.00000100       0.00000126      -0.22354306       0.45836507       0.47221295      -0.00000522       0.00391538       0.04282083      -0.00000048       0.39725168       0.25599656      -0.00000634      -0.16645193      -0.10825259       0.00000369       0.00000621       0.00000551       0.74196506       0.35108926       0.21592322      -0.00000443      -0.12548377      -0.08390090       0.00000140       0.00000081      -0.00000118       0.04397779       0.01821361       0.00991341       0.00000069      -0.50889552       0.72263145      -0.00000125      -0.26399890       0.37243573      -0.00000055      -0.01413043       0.02252081      -0.00000005      -0.01965513       0.03332267      -0.00000006
H       -1.50420986      -1.15452718      -0.87162184       0.20882005      -0.23428890      -0.17014915       0.16311940      -0.33752247      -0.00034284       0.00031140       0.00529291       0.33049042       0.30144464      -0.14224112       0.00001851       0.14597954       0.29401296      -0.00122602       0.06609852       0.22902164      -0.33144970      -0.42846504       0.19563930       0.32291416       0.16695705      -0.20648541      -0.00310216      -0.12526894      -0.25148834       0.11390379      -0.04893748      -0.05583768       0.02928304      -0.02825802       0.17072241       0.01709254       0.13675795       0.52257700       0.02547820       0.17959664       0.25745183      -0.07841264       0.31522388       0.38550855      -0.14121190       0.05070072      -0.16363940      -0.04805605      -0.03579474      -0.11822441       0.00976134       0.21206361       0.42914227      -0.17565940      -0.19621613      -0.13395962       0.16600512      -0.14369518       0.44155666       0.07967050      -0.47952786       0.21451575       0.34973461       0.13336122       0.09258862      -0.08421098      -0.43349874       0.00070846      -0.55431358      -0.38984771      -0.00286100      -0.58649641       0.03623756      -0.02438416       0.02272482      -0.00854844      -0.01311136      -0.02842101       0.00056053      -0.00061765      -0.00125577      -0.00397790      -0.00153243      -0.00534727
H       -1.50419711      -1.15451596       0.87166198      -0.20815514       0.23292093      -0.17014922       0.16417573      -0.34042301      -0.00033685       0.00068411      -0.00308609       0.33049047       0.30144516      -0.14224256       0.00001189       0.14597911       0.29396412      -0.00122987      -0.06699152      -0.22726670      -0.33144542       0.42846782      -0.19563030       0.32291032       0.16695760      -0.20648941       0.00310189       0.12527246       0.25149297       0.11389829       0.04893809       0.05583439       0.02928182      -0.02826016       0.17072002      -0.01709538       0.13675889       0.52257775      -0.02548751      -0.17959660      -0.25745009      -0.07840637      -0.31522619      -0.38551430      -0.14120133       0.05070619      -0.16363516       0.04805930      -0.03579436      -0.11822430      -0.00975910       0.21206524       0.42914480       0.17564945      -0.19621809      -0.13396397      -0.16599980       0.14369773      -0.44155360       0.07967560      -0.47953323       0.21451043      -0.34973000       0.13336138       0.09258813       0.08420716       0.43350766      -0.00071605      -0.55434701      -0.38981965      -0.00285274       0.58647844       0.03623783      -0.02438449      -0.02272585      -0.00854635      -0.01311103       0.02841927       0.00056066      -0.00061764       0.00125563      -0.00397751      -0.00153235       0.00534702
9
Properties=species:S:1:pos:R:3:xtb2_normal_mode_displacements_0:R:3:xtb2_normal_mode_displacements_1:R:3:xtb2_normal_mode_displacements_2:R:3:xtb2_normal_mode_displacements_3:R:3:xtb2_normal_mode_displacements_4:R:3:xtb2_normal_mode_displacements_5:R:3:xtb2_normal_mode_displacements_6:R:3:xtb2_normal_mode_displacements_7:R:3:xtb2_normal_mode_displacements_8:R:3:xtb2_normal_mode_displacements_9:R:3:xtb2_normal_mode_displacements_10:R:3:xtb2_normal_mode_displacements_11:R:3:xtb2_normal_mode_displacements_12:R:3:xtb2_normal_mode_displacements_13:R:3:xtb2_normal_mode_displacements_14:R:3:xtb2_normal_mode_displacements_15:R:3:xtb2_normal_mode_displacements_16:R:3:xtb2_normal_mode_displacements_17:R:3:xtb2_normal_mode_displacements_18:R:3:xtb2_normal_mode_displacements_19:R:3:xtb2_normal_mode_displacements_20:R:3:xtb2_normal_mode_displacements_21:R:3:xtb2_normal_mode_displacements_22:R:3:xtb2_normal_mode_displacements_23:R:3:xtb2_normal_mode_displacements_24:R:3:xtb2_normal_mode_displacements_25:R:3:xtb2_normal_mode_displacements_26:R:3 propene=T reference=T _ConfigSet_loc=" / 0 / 0" xtb2_normal_mode_frequencies="-0.0019461934127446617 -0.0012160035104524494 -9.93123452020089e-06 -1.3014229096056314e-06 2.01829311176581e-05 0.001182055215837519 0.020396585011163454 0.052646472270038644 0.0720661965517159 0.1107921441650487 0.11576844989559419 0.12116217101615684 0.12587386431539677 0.1301292403266887 0.14503383082407395 0.16000746051012865 0.17305063547571045 0.17607711388641958 0.183235233322014 0.184200200995007 0.21403806997450184 0.37170880543951323 0.3735009117214228 0.376824539972782 0.37858381524906215 0.3840148551557691 0.3873825460436433" pbc="F F F"
C        0.03354557       0.05997045      -0.00000003      -0.00018484      -0.00006232      -0.14700365      -0.09212380      -0.03163889       0.00081388       0.00050246       0.00109785       0.33605481       0.30146046      -0.14226065       0.00001578       0.14025167       0.30087247      -0.00119299       0.00023600       0.00006442       0.10304089       0.00000042      -0.00000132      -0.09430485      -0.09701738       0.17667746      -0.00000038      -0.00000087      -0.00000076      -0.13912814       0.00000008       0.00000090       0.07919680       0.02104941       0.02966821       0.00000061      -0.03805961      -0.10937999       0.00000192      -0.00000012      -0.00000060       0.00351711      -0.00000039      -0.00000203      -0.13318641       0.01034389      -0.22655967       0.00000343       0.00440973       0.07800001      -0.00000119      -0.04011031       0.00509104      -0.00000001      -0.08035350      -0.03517561       0.00000065       0.00000006       0.00000011      -0.01181682       0.00207009       0.00179519      -0.00000008      -0.52029516      -0.07716670       0.00000223      -0.00000008      -0.00000001       0.00192081       0.00093338       0.00529737      -0.00000003      -0.01922576       0.02908937      -0.00000034       0.03965149      -0.06032606       0.00000069      -0.00279413      -0.00354144       0.00000005       0.00684677      -0.01257639       0.00000013
C        1.36098214       0.18493540      -0.00000950      -0.00018444       0.00049407       0.16225851      -0.09229575       0.24032147       0.00002729       0.00050246       0.00109289       0.33530478       0.30146107      -0.14226385       0.00001538       0.14024844       0.30695895      -0.00119132       0.00023668      -0.00065616       0.19773506       0.00000082      -0.00000001       0.06913106      -0.10338774      -0.13436733       0.00000243      -0.00000062      -0.00000078       0.05006226      -0.00000048      -0.00000321      -0.15622235       0.02603792       0.10545320      -0.00000324      -0.11657114      -0.05848917       0.00000053      -0.00000070       0.00000034       0.03113218      -0.00000031      -0.00000060      -0.03415752      -0.00174871       0.09787693      -0.00000182       0.07372617      -0.06808843       0.00000095      -0.00961938      -0.00573576       0.00000012      -0.03655727       0.01011078      -0.00000011       0.00000001      -0.00000009      -0.00100521       0.02851820      -0.00007918      -0.00000005       0.46282307       0.00614317      -0.00000123       0.00000003       0.00000000       0.00022002      -0.00109131       0.00058150       0.00000000       0.00036708      -0.00042689       0.00000001      -0.00315517       0.01095426      -0.00000016       0.06134740      -0.02404248       0.00000021      -0.01797284      -0.09123604       0.00000138
H       -0.68176629       0.87735541      -0.00001164      -0.00057720      -0.00029473      -0.52278016      -0.28517891      -0.14391174       0.00268754       0.00050597       0.00109994       0.34095234       0.30146798      -0.14225445       0.00001672       0.13592192       0.29835260      -0.00116794       0.00074992       0.00036575       0.30808101       0.00000137      -0.00000242      -0.24110632      -0.06379115       0.18204692      -0.00000890       0.00000057       0.00000595       0.37562491       0.00000247      -0.00000208      -0.29747072      -0.28749309      -0.14771481       0.00000010      -0.24737010      -0.23404283       0.00000714      -0.00000213      -0.00000894      -0.62138682       0.00000082       0.00000566       0.47327106      -0.18966448      -0.32053687       0.00000252      -0.83076652      -0.41407775       0.00000666      -0.05110253      -0.00069595      -0.00000027       0.09153297       0.06641310      -0.00000098      -0.00000014       0.00000042       0.03009094      -0.02893096      -0.01630472      -0.00000006       0.09341611       0.32206185      -0.00000491      -0.00000001       0.00000001      -0.00098587       0.03079063      -0.05370249       0.00000054       0.22840772      -0.39451688       0.00000451      -0.44272279       0.75396366      -0.00000866      -0.01545228       0.03002717      -0.00000033      -0.05873820       0.10694769      -0.00000121
H        2.13736537       0.81920757      -0.00001438      -0.00056703       0.00073225       0.05450902      -0.28056468       0.35838396       0.00119407       0.00050595       0.00109076       0.33947353       0.30145500      -0.14225979       0.00001596       0.13604797       0.30959084      -0.00116561       0.00073719      -0.00096564       0.47690998       0.00000128      -0.00000084       0.03668975       0.23220889      -0.34684761      -0.00000078       0.00000504       0.00000419       0.59610778      -0.00000412       0.00001505       0.83068971       0.52058993      -0.22168509       0.00000934      -0.31916403       0.06610723      -0.00000275      -0.00000050       0.00000307       0.21615231       0.00000030       0.00000279       0.20483697       0.31488038      -0.13019483       0.00000036      -0.04121456       0.02269696       0.00000009       0.28728469      -0.17396768       0.00000185       0.54988296      -0.33291287       0.00000335      -0.00000080       0.00000049       0.00539027      -0.09119498       0.06857005      -0.00000064      -0.08357487       0.36277264      -0.00000453       0.00000000      -0.00000001      -0.00243314      -0.00149107      -0.00250474      -0.00000001       0.01480606       0.02224586      -0.00000033      -0.05262717      -0.07570769       0.00000120      -0.24292805      -0.44209991       0.00000693       0.46647478       0.72342613      -0.00001153
C       -0.83646980      -1.36016888       0.00001700       0.00032843      -0.00041438      -0.02071977       0.16106191      -0.20620780      -0.00070711       0.00049781       0.00110099       0.33041712       0.30145177      -0.14225113       0.00001502       0.14592482       0.29696487      -0.00122747      -0.00043924       0.00052502      -0.27943326      -0.00000117       0.00000102       0.00809838       0.15731822       0.01686223      -0.00000178       0.00000104       0.00000107       0.01404126      -0.00000038       0.00000047      -0.01146581       0.00690840      -0.08751194       0.00000088       0.20297140       0.10921681      -0.00000283       0.00000136       0.00000140       0.07089068       0.00000070       0.00000192       0.12458419      -0.03531808       0.16738018      -0.00000206      -0.02309628       0.03310871      -0.00000025      -0.06499949      -0.09294416       0.00000141       0.06783537       0.05274920      -0.00000105      -0.00000068      -0.00000080      -0.06645431       0.03845747      -0.05414837       0.00000008       0.05593032       0.03714399      -0.00000045      -0.00000078       0.00000075       0.08740008       0.06167647      -0.00148734       0.00000143       0.03558923      -0.05412236       0.00000017       0.02400263      -0.02976827       0.00000020       0.00088645      -0.00177144       0.00000002       0.00227723      -0.00180065       0.00000002
H        1.66052794      -1.01025609       0.00001255       0.00020082       0.00073673       0.53811572       0.09703735       0.35719953      -0.00182844       0.00049894       0.00109065       0.33046286       0.30146477      -0.14226034       0.00001445       0.14447025       0.30956370      -0.00121576      -0.00026638      -0.00096933      -0.00090119       0.00000059       0.00000194       0.23307647      -0.43632557      -0.34156017       0.00001489      -0.00000609      -0.00001150      -0.50700554       0.00000705       0.00000920       0.41959693      -0.47236960      -0.22168739       0.00001006      -0.01626530       0.01577872       0.00000648      -0.00000231      -0.00000855      -0.58216990       0.00000015       0.00000447       0.33735421      -0.36656492      -0.15534445       0.00000434       0.28381900       0.07238065      -0.00000267       0.30953970       0.17558235      -0.00000331       0.50221862       0.31278762      -0.00000532      -0.00000051      -0.00000025       0.00785570      -0.09464722      -0.07243036       0.00000109      -0.13273208      -0.38242244       0.00000535       0.00000005      -0.00000006       0.00115822      -0.00088359      -0.00031925       0.00000002      -0.00615041       0.00178240      -0.00000004       0.05555510      -0.08145464       0.00000104      -0.43687674       0.74057729      -0.00000962      -0.27468565       0.39782529      -0.00000513
H       -0.39891399      -2.26493650       0.00001931       0.00070593      -0.00015543       0.36305873       0.34619601      -0.07958179      -0.00255800       0.00049435       0.00109861       0.32599045       0.30143826      -0.14225807       0.00001411       0.15005919       0.29979053      -0.00125224      -0.00093261       0.00018720      -0.46600924      -0.00000689      -0.00000385      -0.46925614       0.44746140       0.21413364      -0.00000775       0.00000232       0.00000233       0.20154231       0.00000334       0.00000303       0.04307107      -0.34761455      -0.31773411       0.00000426      -0.26677602      -0.19412992       0.00000299      -0.00000146      -0.00000095      -0.11340080       0.00000100       0.00000126      -0.22354306       0.45836507       0.47221295      -0.00000522       0.00391538       0.04282083      -0.00000048       0.39725168       0.25599656      -0.00000634      -0.16645193      -0.10825259       0.00000369       0.00000621       0.00000551       0.74196506       0.35108926       0.21592322      -0.00000443      -0.12548377      -0.08390090       0.00000140       0.00000081      -0.00000118       0.04397779       0.01821361       0.00991341       0.00000069      -0.50889552       0.72263145      -0.00000125      -0.26399890       0.37243573      -0.00000055      -0.01413043       0.02252081      -0.00000005      -0.01965513       0.03332267      -0.00000006
H       -1.50523039      -1.14836160      -0.87100455       0.20882005      -0.23428890      -0.17014915       0.16311940      -0.33752247      -0.00034284       0.00031140       0.00529291       0.33049042       0.30144464      -0.14224112       0.00001851       0.14597954       0.29401296      -0.00122602       0.06609852       0.22902164      -0.33144970      -0.42846504       0.19563930       0.32291416       0.16695705      -0.20648541      -0.00310216      -0.12526894      -0.25148834       0.11390379      -0.04893748      -0.05583768       0.02928304      -0.02825802       0.17072241       0.01709254       0.13675795       0.52257700       0.02547820       0.17959664       0.25745183      -0.07841264       0.31522388       0.38550855      -0.14121190       0.05070072      -0.16363940      -0.04805605      -0.03579474      -0.11822441       0.00976134       0.21206361       0.42914227      -0.17565940      -0.19621613      -0.13395962       0.16600512      -0.14369518       0.44155666       0.07967050      -0.47952786       0.21451575       0.34973461       0.13336122       0.09258862      -0.08421098      -0.43349874       0.00070846      -0.55431358      -0.38984771      -0.00286100      -0.58649641       0.03623756      -0.02438416       0.02272482      -0.00854844      -0.01311136      -0.02842101       0.00056053      -0.00061765      -0.00125577      -0.00397790      -0.00153243      -0.00534727
H       -1.50521772      -1.14835046       0.87104458      -0.20815514       0.23292093      -0.17014922       0.16417573      -0.34042301      -0.00033685       0.00068411      -0.00308609       0.33049047       0.30144516      -0.14224256       0.00001189       0.14597911       0.29396412      -0.00122987      -0.06699152      -0.22726670      -0.33144542       0.42846782      -0.19563030       0.32291032       0.16695760      -0.20648941       0.00310189       0.12527246       0.25149297       0.11389829       0.04893809       0.05583439       0.02928182      -0.02826016       0.17072002      -0.01709538       0.13675889       0.52257775      -0.02548751      -0.17959660      -0.25745009      -0.07840637      -0.31522619      -0.38551430      -0.14120133       0.05070619      -0.16363516       0.04805930      -0.03579436      -0.11822430      -0.00975910       0.21206524       0.42914480       0.17564945      -0.19621809      -0.13396397      -0.16599980       0.14369773      -0.44155360       0.07967560      -0.47953323       0.21451043      -0.34973000       0.13336138       0.09258813       0.08420716       0.43350766      -0.00071605      -0.55434701      -0.38981965      -0.00285274       0.58647844       0.03623783      -0.02438449      -0.02272585      -0.00854635      -0.01311103       0.02841927       0.00056066      -0.00061764       0.00125563      -0.00397751      -0.00153235       0.00534702
9
Properties=species:S:1:pos:R:3:xtb2_normal_mode_displacements_0:R:3:xtb2_normal_mode_displacements_1:R:3:xtb2_normal_mode_displacements_2:R:3:xtb2_normal_mode_displacements_3:R:3:xtb2_normal_mode_displacements_4:R:3:xtb2_normal_mode_displacements_5:R:3:xtb2_normal_mode_displacements_6:R:3:xtb2_normal_mode_displacements_7:R:3:xtb2_normal_mode_displacements_8:R:3:xtb2_normal_mode_displacements_9:R:3:xtb2_normal_mode_displacements_10:R:3:xtb2_normal_mode_displacements_11:R:3:xtb2_normal_mode_displacements_12:R:3:xtb2_normal_mode_displacements_13:R:3:xtb2_normal_mode_displacements_14:R:3:xtb2_normal_mode_displacements_15:R:3:xtb2_normal_mode_displacements_16:R:3:xtb2_normal_mode_displacements_17:R:3:xtb2_normal_mode_displacements_18:R:3:xtb2_normal_mode_displacements_19:R:3:xtb2_normal_mode_displacements_20:R:3:xtb2_normal_mode_displacements_21:R:3:xtb2_normal_mode_displacements_22:R:3:xtb2_normal_mode_displacements_23:R:3:xtb2_normal_mode_displacements_24:R:3:xtb2_normal_mode_displacements_25:R:3:xtb2_normal_mode_displacements_26:R:3 propene=T reference=T _ConfigSet_loc=" / 0 / 0" xtb2_normal_mode_frequencies="-0.0019461934127446617 -0.0012160035104524494 -9.93123452020089e-06 -1.3014229096056314e-06 2.01829311176581e-05 0.001182055215837519 0.020396585011163454 0.052646472270038644 0.0720661965517159 0.1107921441650487 0.11576844989559419 0.12116217101615684 0.12587386431539677 0.1301292403266887 0.14503383082407395 0.16000746051012865 0.17305063547571045 0.17607711388641958 0.183235233322014 0.184200200995007 0.21403806997450184 0.37170880543951323 0.3735009117214228 0.376824539972782 0.37858381524906215 0.3840148551557691 0.3873825460436433" pbc="F F F"
C        0.03092146       0.05627188      -0.00000011      -0.00018484      -0.00006232      -0.14700365      -0.09212380      -0.03163889       0.00081388       0.00050246       0.00109785       0.33605481       0.30146046      -0.14226065       0.00001578       0.14025167       0.30087247      -0.00119299       0.00023600       0.00006442       0.10304089       0.00000042      -0.00000132      -0.09430485      -0.09701738       0.17667746      -0.00000038      -0.00000087      -0.00000076      -0.13912814       0.00000008       0.00000090       0.07919680       0.02104941       0.02966821       0.00000061      -0.03805961      -0.10937999       0.00000192      -0.00000012      -0.00000060       0.00351711      -0.00000039      -0.00000203      -0.13318641       0.01034389      -0.22655967       0.00000343       0.00440973       0.07800001      -0.00000119      -0.04011031       0.00509104      -0.00000001      -0.08035350      -0.03517561       0.00000065       0.00000006       0.00000011      -0.01181682       0.00207009       0.00179519      -0.00000008      -0.52029516      -0.07716670       0.00000223      -0.00000008      -0.00000001       0.00192081       0.00093338       0.00529737      -0.00000003      -0.01922576       0.02908937      -0.00000034       0.03965149      -0.06032606       0.00000069      -0.00279413      -0.00354144       0.00000005       0.00684677      -0.01257639       0.00000013
C        1.35773614       0.17178912      -0.00000909      -0.00018444       0.00049407       0.16225851      -0.09229575       0.24032147       0.00002729       0.00050246       0.00109289       0.33530478       0.30146107      -0.14226385       0.00001538       0.14024844       0.30695895      -0.00119132       0.00023668      -0.00065616       0.19773506       0.00000082      -0.00000001       0.06913106      -0.10338774      -0.13436733       0.00000243      -0.00000062      -0.00000078       0.05006226      -0.00000048      -0.00000321      -0.15622235       0.02603792       0.10545320      -0.00000324      -0.11657114      -0.05848917       0.00000053      -0.00000070       0.00000034       0.03113218      -0.00000031      -0.00000060      -0.03415752      -0.00174871       0.09787693      -0.00000182       0.07372617      -0.06808843       0.00000095      -0.00961938      -0.00573576       0.00000012      -0.03655727       0.01011078      -0.00000011       0.00000001      -0.00000009      -0.00100521       0.02851820      -0.00007918      -0.00000005       0.46282307       0.00614317      -0.00000123       0.00000003       0.00000000       0.00022002      -0.00109131       0.00058150       0.00000000       0.00036708      -0.00042689       0.00000001      -0.00315517       0.01095426      -0.00000016       0.06134740      -0.02404248       0.00000021      -0.01797284      -0.09123604       0.00000138
H       -0.67138357       0.88269008      -0.00001165      -0.00057720      -0.00029473      -0.52278016      -0.28517891      -0.14391174       0.00268754       0.00050597       0.00109994       0.34095234       0.30146798      -0.14225445       0.00001672       0.13592192       0.29835260      -0.00116794       0.00074992       0.00036575       0.30808101       0.00000137      -0.00000242      -0.24110632      -0.06379115       0.18204692      -0.00000890       0.00000057       0.00000595       0.37562491       0.00000247      -0.00000208      -0.29747072      -0.28749309      -0.14771481       0.00000010      -0.24737010      -0.23404283       0.00000714      -0.00000213      -0.00000894      -0.62138682       0.00000082       0.00000566       0.47327106      -0.18966448      -0.32053687       0.00000252      -0.83076652      -0.41407775       0.00000666      -0.05110253      -0.00069595      -0.00000027       0.09153297       0.06641310      -0.00000098      -0.00000014       0.00000042       0.03009094      -0.02893096      -0.01630472      -0.00000006       0.09341611       0.32206185      -0.00000491      -0.00000001       0.00000001      -0.00098587       0.03079063      -0.05370249       0.00000054       0.22840772      -0.39451688       0.00000451      -0.44272279       0.75396366      -0.00000866      -0.01545228       0.03002717      -0.00000033      -0.05873820       0.10694769      -0.00000121
H        2.11856444       0.82721365      -0.00001472      -0.00056703       0.00073225       0.05450902      -0.28056468       0.35838396       0.00119407       0.00050595       0.00109076       0.33947353       0.30145500      -0.14225979       0.00001596       0.13604797       0.30959084      -0.00116561       0.00073719      -0.00096564       0.47690998       0.00000128      -0.00000084       0.03668975       0.23220889      -0.34684761      -0.00000078       0.00000504       0.00000419       0.59610778      -0.00000412       0.00001505       0.83068971       0.52058993      -0.22168509       0.00000934      -0.31916403       0.06610723      -0.00000275      -0.00000050       0.00000307       0.21615231       0.00000030       0.00000279       0.20483697       0.31488038      -0.13019483       0.00000036      -0.04121456       0.02269696       0.00000009       0.28728469      -0.17396768       0.00000185       0.54988296      -0.33291287       0.00000335      -0.00000080       0.00000049       0.00539027      -0.09119498       0.06857005      -0.00000064      -0.08357487       0.36277264      -0.00000453       0.00000000      -0.00000001      -0.00243314      -0.00149107      -0.00250474      -0.00000001       0.01480606       0.02224586      -0.00000033      -0.05262717      -0.07570769       0.00000120      -0.24292805      -0.44209991       0.00000693       0.46647478       0.72342613      -0.00001153
C       -0.83733103      -1.34925925       0.00001689       0.00032843      -0.00041438      -0.02071977       0.16106191      -0.20620780      -0.00070711       0.00049781       0.00110099       0.33041712       0.30145177      -0.14225113       0.00001502       0.14592482       0.29696487      -0.00122747      -0.00043924       0.00052502      -0.27943326      -0.00000117       0.00000102       0.00809838       0.15731822       0.01686223      -0.00000178       0.00000104       0.00000107       0.01404126      -0.00000038       0.00000047      -0.01146581       0.00690840      -0.08751194       0.00000088       0.20297140       0.10921681      -0.00000283       0.00000136       0.00000140       0.07089068       0.00000070       0.00000192       0.12458419      -0.03531808       0.16738018      -0.00000206      -0.02309628       0.03310871      -0.00000025      -0.06499949      -0.09294416       0.00000141       0.06783537       0.05274920      -0.00000105      -0.00000068      -0.00000080      -0.06645431       0.03845747      -0.05414837       0.00000008       0.05593032       0.03714399      -0.00000045      -0.00000078       0.00000075       0.08740008       0.06167647      -0.00148734       0.00000143       0.03558923      -0.05412236       0.00000017       0.02400263      -0.02976827       0.00000020       0.00088645      -0.00177144       0.00000002       0.00227723      -0.00180065       0.00000002
H        1.67758741      -1.00224993       0.00001219       0.00020082       0.00073673       0.53811572       0.09703735       0.35719953      -0.00182844       0.00049894       0.00109065       0.33046286       0.30146477      -0.14226034       0.00001445       0.14447025       0.30956370      -0.00121576      -0.00026638      -0.00096933      -0.00090119       0.00000059       0.00000194       0.23307647      -0.43632557      -0.34156017       0.00001489      -0.00000609      -0.00001150      -0.50700554       0.00000705       0.00000920       0.41959693      -0.47236960      -0.22168739       0.00001006      -0.01626530       0.01577872       0.00000648      -0.00000231      -0.00000855      -0.58216990       0.00000015       0.00000447       0.33735421      -0.36656492      -0.15534445       0.00000434       0.28381900       0.07238065      -0.00000267       0.30953970       0.17558235      -0.00000331       0.50221862       0.31278762      -0.00000532      -0.00000051      -0.00000025       0.00785570      -0.09464722      -0.07243036       0.00000109      -0.13273208      -0.38242244       0.00000535       0.00000005      -0.00000006       0.00115822      -0.00088359      -0.00031925       0.00000002      -0.00615041       0.00178240      -0.00000004       0.05555510      -0.08145464       0.00000104      -0.43687674       0.74057729      -0.00000962      -0.27468565       0.39782529      -0.00000513
H       -0.38636001      -2.25346164       0.00001916       0.00070593      -0.00015543       0.36305873       0.34619601      -0.07958179      -0.00255800       0.00049435       0.00109861       0.32599045       0.30143826      -0.14225807       0.00001411       0.15005919       0.29979053      -0.00125224      -0.00093261       0.00018720      -0.46600924      -0.00000689      -0.00000385      -0.46925614       0.44746140       0.21413364      -0.00000775       0.00000232       0.00000233       0.20154231       0.00000334       0.00000303       0.04307107      -0.34761455      -0.31773411       0.00000426      -0.26677602      -0.19412992       0.00000299      -0.00000146      -0.00000095      -0.11340080       0.00000100       0.00000126      -0.22354306       0.45836507       0.47221295      -0.00000522       0.00391538       0.04282083      -0.00000048       0.39725168       0.25599656      -0.00000634      -0.16645193      -0.10825259       0.00000369       0.00000621       0.00000551       0.74196506       0.35108926       0.21592322      -0.00000443      -0.12548377      -0.08390090       0.00000140       0.00000081      -0.00000118       0.04397779       0.01821361       0.00991341       0.00000069      -0.50889552       0.72263145      -0.00000125      -0.26399890       0.37243573      -0.00000055      -0.01413043       0.02252081      -0.00000005      -0.01965513       0.03332267      -0.00000006
H       -1.50420986      -1.15452718      -0.87162184       0.20882005      -0.23428890      -0.17014915       0.16311940      -0.33752247      -0.00034284       0.00031140       0.00529291       0.33049042       0.30144464      -0.14224112       0.00001851       0.14597954       0.29401296      -0.00122602       0.06609852       0.22902164      -0.33144970      -0.42846504       0.19563930       0.32291416       0.16695705      -0.20648541      -0.00310216      -0.12526894      -0.25148834       0.11390379      -0.04893748      -0.05583768       0.02928304      -0.02825802       0.17072241       0.01709254       0.13675795       0.52257700       0.02547820       0.17959664       0.25745183      -0.07841264       0.31522388       0.38550855      -0.14121190       0.05070072      -0.16363940      -0.04805605      -0.03579474      -0.11822441       0.00976134       0.21206361       0.42914227      -0.17565940      -0.19621613      -0.13395962       0.16600512      -0.14369518       0.44155666       0.07967050      -0.47952786       0.21451575       0.34973461       0.13336122       0.09258862      -0.08421098      -0.43349874       0.00070846      -0.55431358      -0.38984771      -0.00286100      -0.58649641       0.03623756      -0.02438416       0.02272482      -0.00854844      -0.01311136      -0.02842101       0.00056053      -0.00061765      -0.00125577      -0.00397790      -0.00153243      -0.00534727
H       -1.50419711      -1.15451596       0.87166198      -0.20815514       0.23292093      -0.17014922       0.16417573      -0.34042301      -0.00033685       0.00068411      -0.00308609       0.33049047       0.30144516      -0.14224256       0.00001189       0.14597911       0.29396412      -0.00122987      -0.06699152      -0.22726670      -0.33144542       0.42846782      -0.19563030       0.32291032       0.16695760      -0.20648941       0.00310189       0.12527246       0.25149297       0.11389829       0.04893809       0.05583439       0.02928182      -0.02826016       0.17072002      -0.01709538       0.13675889       0.52257775      -0.02548751      -0.17959660      -0.25745009      -0.07840637      -0.31522619      -0.38551430      -0.14120133       0.05070619      -0.16363516       0.04805930      -0.03579436      -0.11822430      -0.00975910       0.21206524       0.42914480       0.17564945      -0.19621809      -0.13396397      -0.16599980       0.14369773      -0.44155360       0.07967560      -0.47953323       0.21451043      -0.34973000       0.13336138       0.09258813       0.08420716       0.43350766      -0.00071605      -0.55434701      -0.38981965      -0.00285274       0.58647844       0.03623783      -0.02438449      -0.02272585      -0.00854635      -0.01311103       0.02841927       0.00056066      -0.00061764       0.00125563      -0.00397751      -0.00153235       0.00534702
9
Properties=species:S:1:pos:R:3:xtb2_normal_mode_displacements_0:R:3:xtb2_normal_mode_displacements_1:R:3:xtb2_normal_mode_displacements_2:R:3:xtb2_normal_mode_displacements_3:R:3:xtb2_normal_mode_displacements_4:R:3:xtb2_normal_mode_displacements_5:R:3:xtb2_normal_mode_displacements_6:R:3:xtb2_normal_mode_displacements_7:R:3:xtb2_normal_mode_displacements_8:R:3:xtb2_normal_mode_displacements_9:R:3:xtb2_normal_mode_displacements_10:R:3:xtb2_normal_mode_displacements_11:R:3:xtb2_normal_mode_displacements_12:R:3:xtb2_normal_mode_displacements_13:R:3:xtb2_normal_mode_displacements_14:R:3:xtb2_normal_mode_displacements_15:R:3:xtb2_normal_mode_displacements_16:R:3:xtb2_normal_mode_displacements_17:R:3:xtb2_normal_mode_displacements_18:R:3:xtb2_normal_mode_displacements_19:R:3:xtb2_normal_mode_displacements_20:R:3:xtb2_normal_mode_displacements_21:R:3:xtb2_normal_mode_displacements_22:R:3:xtb2_normal_mode_displacements_23:R:3:xtb2_normal_mode_displacements_24:R:3:xtb2_normal_mode_displacements_25:R:3:xtb2_normal_mode_displacements_26:R:3 propene=T reference=T _ConfigSet_loc=" / 0 / 0" xtb2_normal_mode_frequencies="-0.0019461934127446617 -0.0012160035104524494 -9.93123452020089e-06 -1.3014229096056314e-06 2.01829311176581e-05 0.001182055215837519 0.020396585011163454 0.052646472270038644 0.0720661965517159 0.1107921441650487 0.11576844989559419 0.12116217101615684 0.12587386431539677 0.1301292403266887 0.14503383082407395 0.16000746051012865 0.17305063547571045 0.17607711388641958 0.183235233322014 0.184200200995007 0.21403806997450184 0.37170880543951323 0.3735009117214228 0.376824539972782 0.37858381524906215 0.3840148551557691 0.3873825460436433" pbc="F F F"
C        0.02344861       0.04573923      -0.00000032      -0.00018484      -0.00006232      -0.14700365      -0.09212380      -0.03163889       0.00081388       0.00050246       0.00109785       0.33605481       0.30146046      -0.14226065       0.00001578       0.14025167       0.30087247      -0.00119299       0.00023600       0.00006442       0.10304089       0.00000042      -0.00000132      -0.09430485      -0.09701738       0.17667746      -0.00000038      -0.00000087      -0.00000076      -0.13912814       0.00000008       0.00000090       0.07919680       0.02104941       0.02966821       0.00000061      -0.03805961      -0.10937999       0.00000192      -0.00000012      -0.00000060       0.00351711      -0.00000039      -0.00000203      -0.13318641       0.01034389      -0.22655967       0.00000343       0.00440973       0.07800001      -0.00000119      -0.04011031       0.00509104      -0.00000001      -0.08035350      -0.03517561       0.00000065       0.00000006       0.00000011      -0.01181682       0.00207009       0.00179519      -0.00000008      -0.52029516      -0.07716670       0.00000223      -0.00000008      -0.00000001       0.00192081       0.00093338       0.00529737      -0.00000003      -0.01922576       0.02908937      -0.00000034       0.03965149      -0.06032606       0.00000069      -0.00279413      -0.00354144       0.00000005       0.00684677      -0.01257639       0.00000013
C        1.34849230       0.13435170      -0.00000794      -0.00018444       0.00049407       0.16225851      -0.09229575       0.24032147       0.00002729       0.00050246       0.00109289       0.33530478       0.30146107      -0.14226385       0.00001538       0.14024844       0.30695895      -0.00119132       0.00023668      -0.00065616       0.19773506       0.00000082      -0.00000001       0.06913106      -0.10338774      -0.13436733       0.00000243      -0.00000062      -0.00000078       0.05006226      -0.00000048      -0.00000321      -0.15622235       0.02603792       0.10545320      -0.00000324      -0.11657114      -0.05848917       0.00000053      -0.00000070       0.00000034       0.03113218      -0.00000031      -0.00000060      -0.03415752      -0.00174871       0.09787693      -0.00000182       0.07372617      -0.06808843       0.00000095      -0.00961938      -0.00573576       0.00000012      -0.03655727       0.01011078      -0.00000011       0.00000001      -0.00000009      -0.00100521       0.02851820      -0.00007918      -0.00000005       0.46282307       0.00614317      -0.00000123       0.00000003       0.00000000       0.00022002      -0.00109131       0.00058150       0.00000000       0.00036708      -0.00042689       0.00000001      -0.00315517       0.01095426      -0.00000016       0.06134740      -0.02404248       0.00000021      -0.01797284      -0.09123604       0.00000138
H       -0.64181610       0.89788194      -0.00001166      -0.00057720      -0.00029473      -0.52278016      -0.28517891      -0.14391174       0.00268754       0.00050597       0.00109994       0.34095234       0.30146798      -0.14225445       0.00001672       0.13592192       0.29835260      -0.00116794       0.00074992       0.00036575       0.30808101       0.00000137      -0.00000242      -0.24110632      -0.06379115       0.18204692      -0.00000890       0.00000057       0.00000595       0.37562491       0.00000247      -0.00000208      -0.29747072      -0.28749309      -0.14771481       0.00000010      -0.24737010      -0.23404283       0.00000714      -0.00000213      -0.00000894      -0.62138682       0.00000082       0.00000566       0.47327106      -0.18966448      -0.32053687       0.00000252      -0.83076652      -0.41407775       0.00000666      -0.05110253      -0.00069595      -0.00000027       0.09153297       0.06641310      -0.00000098      -0.00000014       0.00000042       0.03009094      -0.02893096      -0.01630472      -0.00000006       0.09341611       0.32206185      -0.00000491      -0.00000001       0.00000001      -0.00098587       0.03079063      -0.05370249       0.00000054       0.22840772      -0.39451688       0.00000451      -0.44272279       0.75396366      -0.00000866      -0.01545228       0.03002717      -0.00000033      -0.05873820       0.10694769      -0.00000121
H        2.06502392       0.85001305      -0.00001568      -0.00056703       0.00073225       0.05450902      -0.28056468       0.35838396       0.00119407       0.00050595       0.00109076       0.33947353       0.30145500      -0.14225979       0.00001596       0.13604797       0.30959084      -0.00116561       0.00073719      -0.00096564       0.47690998       0.00000128      -0.00000084       0.03668975       0.23220889      -0.34684761      -0.00000078       0.00000504       0.00000419       0.59610778      -0.00000412       0.00001505       0.83068971       0.52058993      -0.22168509       0.00000934      -0.31916403       0.06610723      -0.00000275      -0.00000050       0.00000307       0.21615231       0.00000030       0.00000279       0.20483697       0.31488038      -0.13019483       0.00000036      -0.04121456       0.02269696       0.00000009       0.28728469      -0.17396768       0.00000185       0.54988296      -0.33291287       0.00000335      -0.00000080       0.00000049       0.00539027      -0.09119498       0.06857005      -0.00000064      -0.08357487       0.36277264      -0.00000453       0.00000000      -0.00000001      -0.00243314      -0.00149107      -0.00250474      -0.00000001       0.01480606       0.02224586      -0.00000033      -0.05262717      -0.07570769       0.00000120      -0.24292805      -0.44209991       0.00000693       0.46647478       0.72342613      -0.00001153
C       -0.83978361      -1.31819124       0.00001658       0.00032843      -0.00041438      -0.02071977       0.16106191      -0.20620780      -0.00070711       0.00049781       0.00110099       0.33041712       0.30145177      -0.14225113       0.00001502       0.14592482       0.29696487      -0.00122747      -0.00043924       0.00052502      -0.27943326      -0.00000117       0.00000102       0.00809838       0.15731822       0.01686223      -0.00000178       0.00000104       0.00000107       0.01404126      -0.00000038       0.00000047      -0.01146581       0.00690840      -0.08751194       0.00000088       0.20297140       0.10921681      -0.00000283       0.00000136       0.00000140       0.07089068       0.00000070       0.00000192       0.12458419      -0.03531808       0.16738018      -0.00000206      -0.02309628       0.03310871      -0.00000025      -0.06499949      -0.09294416       0.00000141       0.06783537       0.05274920      -0.00000105      -0.00000068      -0.00000080      -0.06645431       0.03845747      -0.05414837       0.00000008       0.05593032       0.03714399      -0.00000045      -0.00000078       0.00000075       0.08740008       0.06167647      -0.00148734       0.00000143       0.03558923      -0.05412236       0.00000017       0.02400263      -0.02976827       0.00000020       0.00088645      -0.00177144       0.00000002       0.00227723      -0.00180065       0.00000002
H        1.72616868      -0.97945030       0.00001115       0.00020082       0.00073673       0.53811572       0.09703735       0.35719953      -0.00182844       0.00049894       0.00109065       0.33046286       0.30146477      -0.14226034       0.00001445       0.14447025       0.30956370      -0.00121576      -0.00026638      -0.00096933      -0.00090119       0.00000059       0.00000194       0.23307647      -0.43632557      -0.34156017       0.00001489      -0.00000609      -0.00001150      -0.50700554       0.00000705       0.00000920       0.41959693      -0.47236960      -0.22168739       0.00001006      -0.01626530       0.01577872       0.00000648      -0.00000231      -0.00000855      -0.58216990       0.00000015       0.00000447       0.33735421      -0.36656492      -0.15534445       0.00000434       0.28381900       0.07238065      -0.00000267       0.30953970       0.17558235      -0.00000331       0.50221862       0.31278762      -0.00000532      -0.00000051      -0.00000025       0.00785570      -0.09464722      -0.07243036       0.00000109      -0.13273208      -0.38242244       0.00000535       0.00000005      -0.00000006       0.00115822      -0.00088359      -0.00031925       0.00000002      -0.00615041       0.00178240      -0.00000004       0.05555510      -0.08145464       0.00000104      -0.43687674       0.74057729      -0.00000962      -0.27468565       0.39782529      -0.00000513
H       -0.35060929      -2.22078400       0.00001872       0.00070593      -0.00015543       0.36305873       0.34619601      -0.07958179      -0.00255800       0.00049435       0.00109861       0.32599045       0.30143826      -0.14225807       0.00001411       0.15005919       0.29979053      -0.00125224      -0.00093261       0.00018720      -0.46600924      -0.00000689      -0.00000385      -0.46925614       0.44746140       0.21413364      -0.00000775       0.00000232       0.00000233       0.20154231       0.00000334       0.00000303       0.04307107      -0.34761455      -0.31773411       0.00000426      -0.26677602      -0.19412992       0.00000299      -0.00000146      -0.00000095      -0.11340080       0.00000100       0.00000126      -0.22354306       0.45836507       0.47221295      -0.00000522       0.00391538       0.04282083      -0.00000048       0.39725168       0.25599656      -0.00000634      -0.16645193      -0.10825259       0.00000369       0.00000621       0.00000551       0.74196506       0.35108926       0.21592322      -0.00000443      -0.12548377      -0.08390090       0.00000140       0.00000081      -0.00000118       0.04397779       0.01821361       0.00991341       0.00000069      -0.50889552       0.72263145      -0.00000125      -0.26399890       0.37243573      -0.00000055      -0.01413043       0.02252081      -0.00000005      -0.01965513       0.03332267      -0.00000006
H       -1.50130364      -1.17208528      -0.87337974       0.20882005      -0.23428890      -0.17014915       0.16311940      -0.33752247      -0.00034284       0.00031140       0.00529291       0.33049042       0.30144464      -0.14224112       0.00001851       0.14597954       0.29401296      -0.00122602       0.06609852       0.22902164      -0.33144970      -0.42846504       0.19563930       0.32291416       0.16695705      -0.20648541      -0.00310216      -0.12526894      -0.25148834       0.11390379      -0.04893748      -0.05583768       0.02928304      -0.02825802       0.17072241       0.01709254       0.13675795       0.52257700       0.02547820       0.17959664       0.25745183      -0.07841264       0.31522388       0.38550855      -0.14121190       0.05070072      -0.16363940      -0.04805605      -0.03579474      -0.11822441       0.00976134       0.21206361       0.42914227      -0.17565940      -0.19621613      -0.13395962       0.16600512      -0.14369518       0.44155666       0.07967050      -0.47952786       0.21451575       0.34973461       0.13336122       0.09258862      -0.08421098      -0.43349874       0.00070846      -0.55431358      -0.38984771      -0.00286100      -0.58649641       0.03623756      -0.02438416       0.02272482      -0.00854844      -0.01311136      -0.02842101       0.00056053      -0.00061765      -0.00125577      -0.00397790      -0.00153243      -0.00534727
H       -1.50129067      -1.17207381       0.87342017      -0.20815514       0.23292093      -0.17014922       0.16417573      -0.34042301      -0.00033685       0.00068411      -0.00308609       0.33049047       0.30144516      -0.14224256       0.00001189       0.14597911       0.29396412      -0.00122987      -0.06699152      -0.22726670      -0.33144542       0.42846782      -0.19563030       0.32291032       0.16695760      -0.20648941       0.00310189       0.12527246       0.25149297       0.11389829       0.04893809       0.05583439       0.02928182      -0.02826016       0.17072002      -0.01709538       0.13675889       0.52257775      -0.02548751      -0.17959660      -0.25745009      -0.07840637      -0.31522619      -0.38551430      -0.14120133       0.05070619      -0.16363516       0.04805930      -0.03579436      -0.11822430      -0.00975910       0.21206524       0.42914480       0.17564945      -0.19621809      -0.13396397      -0.16599980       0.14369773      -0.44155360       0.07967560      -0.47953323       0.21451043      -0.34973000       0.13336138       0.09258813       0.08420716       0.43350766      -0.00071605      -0.55434701      -0.38981965      -0.00285274       0.58647844       0.03623783      -0.02438449      -0.02272585      -0.00854635      -0.01311103       0.02841927       0.00056066      -0.00061764       0.00125563      -0.00397751      -0.00153235       0.00534702
9
Properties=species:S:1:pos:R:3:xtb2_normal_mode_displacements_0:R:3:xtb2_normal_mode_displacements_1:R:3:xtb2_normal_mode_displacements_2:R:3:xtb2_normal_mode_displacements_3:R:3:xtb2_normal_mode_displacements_4:R:3:xtb2_normal_mode_displacements_5:R:3:xtb2_normal_mode_displacements_6:R:3:xtb2_normal_mode_displacements_7:R:3:xtb2_normal_mode_displacements_8:R:3:xtb2_normal_mode_displacements_9:R:3:xtb2_normal_mode_displacements_10:R:3:xtb2_normal_mode_displacements_11:R:3:xtb2_normal_mode_displacements_12:R:3:xtb2_normal_mode_displacements_13:R:3:xtb2_normal_mode_displacements_14:R:3:xtb2_normal_mode_displacements_15:R:3:xtb2_normal_mode_displacements_16:R:3:xtb2_normal_mode_displacements_17:R:3:xtb2_normal_mode_displacements_18:R:3:xtb2_normal_mode_displacements_19:R:3:xtb2_normal_mode_displacements_20:R:3:xtb2_normal_mode_displacements_21:R:3:xtb2_normal_mode_displacements_22:R:3:xtb2_normal_mode_displacements_23:R:3:xtb2_normal_mode_displacements_24:R:3:xtb2_normal_mode_displacements_25:R:3:xtb2_normal_mode_displacements_26:R:3 propene=T reference=T _ConfigSet_loc=" / 0 / 0" xtb2_normal_mode_frequencies="-0.0019461934127446617 -0.0012160035104524494 -9.93123452020089e-06 -1.3014229096056314e-06 2.01829311176581e-05 0.001182055215837519 0.020396585011163454 0.052646472270038644 0.0720661965517159 0.1107921441650487 0.11576844989559419 0.12116217101615684 0.12587386431539677 0.1301292403266887 0.14503383082407395 0.16000746051012865 0.17305063547571045 0.17607711388641958 0.183235233322014 0.184200200995007 0.21403806997450184 0.37170880543951323 0.3735009117214228 0.376824539972782 0.37858381524906215 0.3840148551557691 0.3873825460436433" pbc="F F F"
C        0.01226471       0.02997602      -0.00000065      -0.00018484      -0.00006232      -0.14700365      -0.09212380      -0.03163889       0.00081388       0.00050246       0.00109785       0.33605481       0.30146046      -0.14226065       0.00001578       0.14025167       0.30087247      -0.00119299       0.00023600       0.00006442       0.10304089       0.00000042      -0.00000132      -0.09430485      -0.09701738       0.17667746      -0.00000038      -0.00000087      -0.00000076      -0.13912814       0.00000008       0.00000090       0.07919680       0.02104941       0.02966821       0.00000061      -0.03805961      -0.10937999       0.00000192      -0.00000012      -0.00000060       0.00351711      -0.00000039      -0.00000203      -0.13318641       0.01034389      -0.22655967       0.00000343       0.00440973       0.07800001      -0.00000119      -0.04011031       0.00509104      -0.00000001      -0.08035350      -0.03517561       0.00000065       0.00000006       0.00000011      -0.01181682       0.00207009       0.00179519      -0.00000008      -0.52029516      -0.07716670       0.00000223      -0.00000008      -0.00000001       0.00192081       0.00093338       0.00529737      -0.00000003      -0.01922576       0.02908937      -0.00000034       0.03965149      -0.06032606       0.00000069      -0.00279413      -0.00354144       0.00000005       0.00684677      -0.01257639       0.00000013
C        1.33465791       0.07832264      -0.00000622      -0.00018444       0.00049407       0.16225851      -0.09229575       0.24032147       0.00002729       0.00050246       0.00109289       0.33530478       0.30146107      -0.14226385       0.00001538       0.14024844       0.30695895      -0.00119132       0.00023668      -0.00065616       0.19773506       0.00000082      -0.00000001       0.06913106      -0.10338774      -0.13436733       0.00000243      -0.00000062      -0.00000078       0.05006226      -0.00000048      -0.00000321      -0.15622235       0.02603792       0.10545320      -0.00000324      -0.11657114      -0.05848917       0.00000053      -0.00000070       0.00000034       0.03113218      -0.00000031      -0.00000060      -0.03415752      -0.00174871       0.09787693      -0.00000182       0.07372617      -0.06808843       0.00000095      -0.00961938      -0.00573576       0.00000012      -0.03655727       0.01011078      -0.00000011       0.00000001      -0.00000009      -0.00100521       0.02851820      -0.00007918      -0.00000005       0.46282307       0.00614317      -0.00000123       0.00000003       0.00000000       0.00022002      -0.00109131       0.00058150       0.00000000       0.00036708      -0.00042689       0.00000001      -0.00315517       0.01095426      -0.00000016       0.06134740      -0.02404248       0.00000021      -0.01797284      -0.09123604       0.00000138
H       -0.59756524       0.92061816      -0.00001167      -0.00057720      -0.00029473      -0.52278016      -0.28517891      -0.14391174       0.00268754       0.00050597       0.00109994       0.34095234       0.30146798      -0.14225445       0.00001672       0.13592192       0.29835260      -0.00116794       0.00074992       0.00036575       0.30808101       0.00000137      -0.00000242      -0.24110632      -0.06379115       0.18204692      -0.00000890       0.00000057       0.00000595       0.37562491       0.00000247      -0.00000208      -0.29747072      -0.28749309      -0.14771481       0.00000010      -0.24737010      -0.23404283       0.00000714      -0.00000213      -0.00000894      -0.62138682       0.00000082       0.00000566       0.47327106      -0.18966448      -0.32053687       0.00000252      -0.83076652      -0.41407775       0.00000666      -0.05110253      -0.00069595      -0.00000027       0.09153297       0.06641310      -0.00000098      -0.00000014       0.00000042       0.03009094      -0.02893096      -0.01630472      -0.00000006       0.09341611       0.32206185      -0.00000491      -0.00000001       0.00000001      -0.00098587       0.03079063      -0.05370249       0.00000054       0.22840772      -0.39451688       0.00000451      -0.44272279       0.75396366      -0.00000866      -0.01545228       0.03002717      -0.00000033      -0.05873820       0.10694769      -0.00000121
H        1.98489486       0.88413475      -0.00001711      -0.00056703       0.00073225       0.05450902      -0.28056468       0.35838396       0.00119407       0.00050595       0.00109076       0.33947353       0.30145500      -0.14225979       0.00001596       0.13604797       0.30959084      -0.00116561       0.00073719      -0.00096564       0.47690998       0.00000128      -0.00000084       0.03668975       0.23220889      -0.34684761      -0.00000078       0.00000504       0.00000419       0.59610778      -0.00000412       0.00001505       0.83068971       0.52058993      -0.22168509       0.00000934      -0.31916403       0.06610723      -0.00000275      -0.00000050       0.00000307       0.21615231       0.00000030       0.00000279       0.20483697       0.31488038      -0.13019483       0.00000036      -0.04121456       0.02269696       0.00000009       0.28728469      -0.17396768       0.00000185       0.54988296      -0.33291287       0.00000335      -0.00000080       0.00000049       0.00539027      -0.09119498       0.06857005      -0.00000064      -0.08357487       0.36277264      -0.00000453       0.00000000      -0.00000001      -0.00243314      -0.00149107      -0.00250474      -0.00000001       0.01480606       0.02224586      -0.00000033      -0.05262717      -0.07570769       0.00000120      -0.24292805      -0.44209991       0.00000693       0.46647478       0.72342613      -0.00001153
C       -0.84345416      -1.27169467       0.00001611       0.00032843      -0.00041438      -0.02071977       0.16106191      -0.20620780      -0.00070711       0.00049781       0.00110099       0.33041712       0.30145177      -0.14225113       0.00001502       0.14592482       0.29696487      -0.00122747      -0.00043924       0.00052502      -0.27943326      -0.00000117       0.00000102       0.00809838       0.15731822       0.01686223      -0.00000178       0.00000104       0.00000107       0.01404126      -0.00000038       0.00000047      -0.01146581       0.00690840      -0.08751194       0.00000088       0.20297140       0.10921681      -0.00000283       0.00000136       0.00000140       0.07089068       0.00000070       0.00000192       0.12458419      -0.03531808       0.16738018      -0.00000206      -0.02309628       0.03310871      -0.00000025      -0.06499949      -0.09294416       0.00000141       0.06783537       0.05274920      -0.00000105      -0.00000068      -0.00000080      -0.06645431       0.03845747      -0.05414837       0.00000008       0.05593032       0.03714399      -0.00000045      -0.00000078       0.00000075       0.08740008       0.06167647      -0.00148734       0.00000143       0.03558923      -0.05412236       0.00000017       0.02400263      -0.02976827       0.00000020       0.00088645      -0.00177144       0.00000002       0.00227723      -0.00180065       0.00000002
H        1.79887567      -0.94532823       0.00000961       0.00020082       0.00073673       0.53811572       0.09703735       0.35719953      -0.00182844       0.00049894       0.00109065       0.33046286       0.30146477      -0.14226034       0.00001445       0.14447025       0.30956370      -0.00121576      -0.00026638      -0.00096933      -0.00090119       0.00000059       0.00000194       0.23307647      -0.43632557      -0.34156017       0.00001489      -0.00000609      -0.00001150      -0.50700554       0.00000705       0.00000920       0.41959693      -0.47236960      -0.22168739       0.00001006      -0.01626530       0.01577872       0.00000648      -0.00000231      -0.00000855      -0.58216990       0.00000015       0.00000447       0.33735421      -0.36656492      -0.15534445       0.00000434       0.28381900       0.07238065      -0.00000267       0.30953970       0.17558235      -0.00000331       0.50221862       0.31278762      -0.00000532      -0.00000051      -0.00000025       0.00785570      -0.09464722      -0.07243036       0.00000109      -0.13273208      -0.38242244       0.00000535       0.00000005      -0.00000006       0.00115822      -0.00088359      -0.00031925       0.00000002      -0.00615041       0.00178240      -0.00000004       0.05555510      -0.08145464       0.00000104      -0.43687674       0.74057729      -0.00000962      -0.27468565       0.39782529      -0.00000513
H       -0.29710456      -2.17187845       0.00001806       0.00070593      -0.00015543       0.36305873       0.34619601      -0.07958179      -0.00255800       0.00049435       0.00109861       0.32599045       0.30143826      -0.14225807       0.00001411       0.15005919       0.29979053      -0.00125224      -0.00093261       0.00018720      -0.46600924      -0.00000689      -0.00000385      -0.46925614       0.44746140       0.21413364      -0.00000775       0.00000232       0.00000233       0.20154231       0.00000334       0.00000303       0.04307107      -0.34761455      -0.31773411       0.00000426      -0.26677602      -0.19412992       0.00000299      -0.00000146      -0.00000095      -0.11340080       0.00000100       0.00000126      -0.22354306       0.45836507       0.47221295      -0.00000522       0.00391538       0.04282083      -0.00000048       0.39725168       0.25599656      -0.00000634      -0.16645193      -0.10825259       0.00000369       0.00000621       0.00000551       0.74196506       0.35108926       0.21592322      -0.00000443      -0.12548377      -0.08390090       0.00000140       0.00000081      -0.00000118       0.04397779       0.01821361       0.00991341       0.00000069      -0.50889552       0.72263145      -0.00000125      -0.26399890       0.37243573      -0.00000055      -0.01413043       0.02252081      -0.00000005      -0.01965513       0.03332267      -0.00000006
H       -1.49695418      -1.19836282      -0.87601062       0.20882005      -0.23428890      -0.17014915       0.16311940      -0.33752247      -0.00034284       0.00031140       0.00529291       0.33049042       0.30144464      -0.14224112       0.00001851       0.14597954       0.29401296      -0.00122602       0.06609852       0.22902164      -0.33144970      -0.42846504       0.19563930       0.32291416       0.16695705      -0.20648541      -0.00310216      -0.12526894      -0.25148834       0.11390379      -0.04893748      -0.05583768       0.02928304      -0.02825802       0.17072241       0.01709254       0.13675795       0.52257700       0.02547820       0.17959664       0.25745183      -0.07841264       0.31522388       0.38550855      -0.14121190       0.05070072      -0.16363940      -0.04805605      -0.03579474      -0.11822441       0.00976134       0.21206361       0.42914227      -0.17565940      -0.19621613      -0.13395962       0.16600512      -0.14369518       0.44155666       0.07967050      -0.47952786       0.21451575       0.34973461       0.13336122       0.09258862      -0.08421098      -0.43349874       0.00070846      -0.55431358      -0.38984771      -0.00286100      -0.58649641       0.03623756      -0.02438416       0.02272482      -0.00854844      -0.01311136      -0.02842101       0.00056053      -0.00061765      -0.00125577      -0.00397790      -0.00153243      -0.00534727
H       -1.49694087      -1.19835099       0.87605148      -0.20815514       0.23292093      -0.17014922       0.16417573      -0.34042301      -0.00033685       0.00068411      -0.00308609       0.33049047       0.30144516      -0.14224256       0.00001189       0.14597911       0.29396412      -0.00122987      -0.06699152      -0.22726670      -0.33144542       0.42846782      -0.19563030       0.32291032       0.16695760      -0.20648941       0.00310189       0.12527246       0.25149297       0.11389829       0.04893809       0.05583439       0.02928182      -0.02826016       0.17072002      -0.01709538       0.13675889       0.52257775      -0.02548751      -0.17959660      -0.25745009      -0.07840637      -0.31522619      -0.38551430      -0.14120133       0.05070619      -0.16363516       0.04805930      -0.03579436      -0.11822430      -0.00975910       0.21206524       0.42914480       0.17564945      -0.19621809      -0.13396397      -0.16599980       0.14369773      -0.44155360       0.07967560      -0.47953323       0.21451043      -0.34973000       0.13336138       0.09258813       0.08420716       0.43350766      -0.00071605      -0.55434701      -0.38981965      -0.00285274       0.58647844       0.03623783      -0.02438449      -0.02272585      -0.00854635      -0.01311103       0.02841927       0.00056066      -0.00061764       0.00125563      -0.00397751      -0.00153235       0.00534702
9
Properties=species:S:1:pos:R:3:xtb2_normal_mode_displacements_0:R:3:xtb2_normal_mode_displacements_1:R:3:xtb2_normal_mode_displacements_2:R:3:xtb2_normal_mode_displacements_3:R:3:xtb2_normal_mode_displacements_4:R:3:xtb2_normal_mode_displacements_5:R:3:xtb2_normal_mode_displacements_6:R:3:xtb2_normal_mode_displacements_7:R:3:xtb2_normal_mode_displacements_8:R:3:xtb2_normal_mode_displacements_9:R:3:xtb2_normal_mode_displacements_10:R:3:xtb2_normal_mode_displacements_11:R:3:xtb2_normal_mode_displacements_12:R:3:xtb2_normal_mode_displacements_13:R:3:xtb2_normal_mode_displacements_14:R:3:xtb2_normal_mode_displacements_15:R:3:xtb2_normal_mode_displacements_16:R:3:xtb2_normal_mode_displacements_17:R:3:xtb2_normal_mode_displacements_18:R:3:xtb2_normal_mode_displacements_19:R:3:xtb2_normal_mode_displacements_20:R:3:xtb2_normal_mode_displacements_21:R:3:xtb2_normal_mode_displacements_22:R:3:xtb2_normal_mode_displacements_23:R:3:xtb2_normal_mode_displacements_24:R:3:xtb2_normal_mode_displacements_25:R:3:xtb2_normal_mode_displacements_26:R:3 propene=T reference=T _ConfigSet_loc=" / 0 / 0" xtb2_normal_mode_frequencies="-0.0019461934127446617 -0.0012160035104524494 -9.93123452020089e-06 -1.3014229096056314e-06 2.01829311176581e-05 0.001182055215837519 0.020396585011163454 0.052646472270038644 0.0720661965517159 0.1107921441650487 0.11576844989559419 0.12116217101615684 0.12587386431539677 0.1301292403266887 0.14503383082407395 0.16000746051012865 0.17305063547571045 0.17607711388641958 0.183235233322014 0.184200200995007 0.21403806997450184 0.37170880543951323 0.3735009117214228 0.376824539972782 0.37858381524906215 0.3840148551557691 0.3873825460436433" pbc="F F F"
C       -0.00092761       0.01138203      -0.00000103      -0.00018484      -0.00006232      -0.14700365      -0.09212380      -0.03163889       0.00081388       0.00050246       0.00109785       0.33605481       0.30146046      -0.14226065       0.00001578       0.14025167       0.30087247      -0.00119299       0.00023600       0.00006442       0.10304089       0.00000042      -0.00000132      -0.09430485      -0.09701738       0.17667746      -0.00000038      -0.00000087      -0.00000076      -0.13912814       0.00000008       0.00000090       0.07919680       0.02104941       0.02966821       0.00000061      -0.03805961      -0.10937999       0.00000192      -0.00000012      -0.00000060       0.00351711      -0.00000039      -0.00000203      -0.13318641       0.01034389      -0.22655967       0.00000343       0.00440973       0.07800001      -0.00000119      -0.04011031       0.00509104      -0.00000001      -0.08035350      -0.03517561       0.00000065       0.00000006       0.00000011      -0.01181682       0.00207009       0.00179519      -0.00000008      -0.52029516      -0.07716670       0.00000223      -0.00000008      -0.00000001       0.00192081       0.00093338       0.00529737      -0.00000003      -0.01922576       0.02908937      -0.00000034       0.03965149      -0.06032606       0.00000069      -0.00279413      -0.00354144       0.00000005       0.00684677      -0.01257639       0.00000013
C        1.31833914       0.01223186      -0.00000419      -0.00018444       0.00049407       0.16225851      -0.09229575       0.24032147       0.00002729       0.00050246       0.00109289       0.33530478       0.30146107      -0.14226385       0.00001538       0.14024844       0.30695895      -0.00119132       0.00023668      -0.00065616       0.19773506       0.00000082      -0.00000001       0.06913106      -0.10338774      -0.13436733       0.00000243      -0.00000062      -0.00000078       0.05006226      -0.00000048      -0.00000321      -0.15622235       0.02603792       0.10545320      -0.00000324      -0.11657114      -0.05848917       0.00000053      -0.00000070       0.00000034       0.03113218      -0.00000031      -0.00000060      -0.03415752      -0.00174871       0.09787693      -0.00000182       0.07372617      -0.06808843       0.00000095      -0.00961938      -0.00573576       0.00000012      -0.03655727       0.01011078      -0.00000011       0.00000001      -0.00000009      -0.00100521       0.02851820      -0.00007918      -0.00000005       0.46282307       0.00614317      -0.00000123       0.00000003       0.00000000       0.00022002      -0.00109131       0.00058150       0.00000000       0.00036708      -0.00042689       0.00000001      -0.00315517       0.01095426      -0.00000016       0.06134740      -0.02404248       0.00000021      -0.01797284      -0.09123604       0.00000138
H       -0.54536780       0.94743736      -0.00001169      -0.00057720      -0.00029473      -0.52278016      -0.28517891      -0.14391174       0.00268754       0.00050597       0.00109994       0.34095234       0.30146798      -0.14225445       0.00001672       0.13592192       0.29835260      -0.00116794       0.00074992       0.00036575       0.30808101       0.00000137      -0.00000242      -0.24110632      -0.06379115       0.18204692      -0.00000890       0.00000057       0.00000595       0.37562491       0.00000247      -0.00000208      -0.29747072      -0.28749309      -0.14771481       0.00000010      -0.24737010      -0.23404283       0.00000714      -0.00000213      -0.00000894      -0.62138682       0.00000082       0.00000566       0.47327106      -0.18966448      -0.32053687       0.00000252      -0.83076652      -0.41407775       0.00000666      -0.05110253      -0.00069595      -0.00000027       0.09153297       0.06641310      -0.00000098      -0.00000014       0.00000042       0.03009094      -0.02893096      -0.01630472      -0.00000006       0.09341611       0.32206185      -0.00000491      -0.00000001       0.00000001      -0.00098587       0.03079063      -0.05370249       0.00000054       0.22840772      -0.39451688       0.00000451      -0.44272279       0.75396366      -0.00000866      -0.01545228       0.03002717      -0.00000033      -0.05873820       0.10694769      -0.00000121
H        1.89037620       0.92438405      -0.00001881      -0.00056703       0.00073225       0.05450902      -0.28056468       0.35838396       0.00119407       0.00050595       0.00109076       0.33947353       0.30145500      -0.14225979       0.00001596       0.13604797       0.30959084      -0.00116561       0.00073719      -0.00096564       0.47690998       0.00000128      -0.00000084       0.03668975       0.23220889      -0.34684761      -0.00000078       0.00000504       0.00000419       0.59610778      -0.00000412       0.00001505       0.83068971       0.52058993      -0.22168509       0.00000934      -0.31916403       0.06610723      -0.00000275      -0.00000050       0.00000307       0.21615231       0.00000030       0.00000279       0.20483697       0.31488038      -0.13019483       0.00000036      -0.04121456       0.02269696       0.00000009       0.28728469      -0.17396768       0.00000185       0.54988296      -0.33291287       0.00000335      -0.00000080       0.00000049       0.00539027      -0.09119498       0.06857005      -0.00000064      -0.08357487       0.36277264      -0.00000453       0.00000000      -0.00000001      -0.00243314      -0.00149107      -0.00250474      -0.00000001       0.01480606       0.02224586      -0.00000033      -0.05262717      -0.07570769       0.00000120      -0.24292805      -0.44209991       0.00000693       0.46647478       0.72342613      -0.00001153
C       -0.84778387      -1.21684823       0.00001556       0.00032843      -0.00041438      -0.02071977       0.16106191      -0.20620780      -0.00070711       0.00049781       0.00110099       0.33041712       0.30145177      -0.14225113       0.00001502       0.14592482       0.29696487      -0.00122747      -0.00043924       0.00052502      -0.27943326      -0.00000117       0.00000102       0.00809838       0.15731822       0.01686223      -0.00000178       0.00000104       0.00000107       0.01404126      -0.00000038       0.00000047      -0.01146581       0.00690840      -0.08751194       0.00000088       0.20297140       0.10921681      -0.00000283       0.00000136       0.00000140       0.07089068       0.00000070       0.00000192       0.12458419      -0.03531808       0.16738018      -0.00000206      -0.02309628       0.03310871      -0.00000025      -0.06499949      -0.09294416       0.00000141       0.06783537       0.05274920      -0.00000105      -0.00000068      -0.00000080      -0.06645431       0.03845747      -0.05414837       0.00000008       0.05593032       0.03714399      -0.00000045      -0.00000078       0.00000075       0.08740008       0.06167647      -0.00148734       0.00000143       0.03558923      -0.05412236       0.00000017       0.02400263      -0.02976827       0.00000020       0.00088645      -0.00177144       0.00000002       0.00227723      -0.00180065       0.00000002
H        1.88463942      -0.90507852       0.00000778       0.00020082       0.00073673       0.53811572       0.09703735       0.35719953      -0.00182844       0.00049894       0.00109065       0.33046286       0.30146477      -0.14226034       0.00001445       0.14447025       0.30956370      -0.00121576      -0.00026638      -0.00096933      -0.00090119       0.00000059       0.00000194       0.23307647      -0.43632557      -0.34156017       0.00001489      -0.00000609      -0.00001150      -0.50700554       0.00000705       0.00000920       0.41959693      -0.47236960      -0.22168739       0.00001006      -0.01626530       0.01577872       0.00000648      -0.00000231      -0.00000855      -0.58216990       0.00000015       0.00000447       0.33735421      -0.36656492      -0.15534445       0.00000434       0.28381900       0.07238065      -0.00000267       0.30953970       0.17558235      -0.00000331       0.50221862       0.31278762      -0.00000532      -0.00000051      -0.00000025       0.00785570      -0.09464722      -0.07243036       0.00000109      -0.13273208      -0.38242244       0.00000535       0.00000005      -0.00000006       0.00115822      -0.00088359      -0.00031925       0.00000002      -0.00615041       0.00178240      -0.00000004       0.05555510      -0.08145464       0.00000104      -0.43687674       0.74057729      -0.00000962      -0.27468565       0.39782529      -0.00000513
H       -0.23399142      -2.11419043       0.00001729       0.00070593      -0.00015543       0.36305873       0.34619601      -0.07958179      -0.00255800       0.00049435       0.00109861       0.32599045       0.30143826      -0.14225807       0.00001411       0.15005919       0.29979053      -0.00125224      -0.00093261       0.00018720      -0.46600924      -0.00000689      -0.00000385      -0.46925614       0.44746140       0.21413364      -0.00000775       0.00000232       0.00000233       0.20154231       0.00000334       0.00000303       0.04307107      -0.34761455      -0.31773411       0.00000426      -0.26677602      -0.19412992       0.00000299      -0.00000146      -0.00000095      -0.11340080       0.00000100       0.00000126      -0.22354306       0.45836507       0.47221295      -0.00000522       0.00391538       0.04282083      -0.00000048       0.39725168       0.25599656      -0.00000634      -0.16645193      -0.10825259       0.00000369       0.00000621       0.00000551       0.74196506       0.35108926       0.21592322      -0.00000443      -0.12548377      -0.08390090       0.00000140       0.00000081      -0.00000118       0.04397779       0.01821361       0.00991341       0.00000069      -0.50889552       0.72263145      -0.00000125      -0.26399890       0.37243573      -0.00000055      -0.01413043       0.02252081      -0.00000005      -0.01965513       0.03332267      -0.00000006
H       -1.49182363      -1.22935930      -0.87911395       0.20882005      -0.23428890      -0.17014915       0.16311940      -0.33752247      -0.00034284       0.00031140       0.00529291       0.33049042       0.30144464      -0.14224112       0.00001851       0.14597954       0.29401296      -0.00122602       0.06609852       0.22902164      -0.33144970      -0.42846504       0.19563930       0.32291416       0.16695705      -0.20648541      -0.00310216      -0.12526894      -0.25148834       0.11390379      -0.04893748      -0.05583768       0.02928304      -0.02825802       0.17072241       0.01709254       0.13675795       0.52257700       0.02547820       0.17959664       0.25745183      -0.07841264       0.31522388       0.38550855      -0.14121190       0.05070072      -0.16363940      -0.04805605      -0.03579474      -0.11822441       0.00976134       0.21206361       0.42914227      -0.17565940      -0.19621613      -0.13395962       0.16600512      -0.14369518       0.44155666       0.07967050      -0.47952786       0.21451575       0.34973461       0.13336122       0.09258862      -0.08421098      -0.43349874       0.00070846      -0.55431358      -0.38984771      -0.00286100      -0.58649641       0.03623756      -0.02438416       0.02272482      -0.00854844      -0.01311136      -0.02842101       0.00056053      -0.00061765      -0.00125577      -0.00397790      -0.00153243      -0.00534727
H       -1.49180994      -1.22934703       0.87915533      -0.20815514       0.23292093      -0.17014922       0.16417573      -0.34042301      -0.00033685       0.00068411      -0.00308609       0.33049047       0.30144516      -0.14224256       0.00001189       0.14597911       0.29396412      -0.00122987      -0.06699152      -0.22726670      -0.33144542       0.42846782      -0.19563030       0.32291032       0.16695760      -0.20648941       0.00310189       0.12527246       0.25149297       0.11389829       0.04893809       0.05583439       0.02928182      -0.02826016       0.17072002      -0.01709538       0.13675889       0.52257775      -0.02548751      -0.17959660      -0.25745009      -0.07840637      -0.31522619      -0.38551430      -0.14120133       0.05070619      -0.16363516       0.04805930      -0.03579436      -0.11822430      -0.00975910       0.21206524       0.42914480       0.17564945      -0.19621809      -0.13396397      -0.16599980       0.14369773      -0.44155360       0.07967560      -0.47953323       0.21451043      -0.34973000       0.13336138       0.09258813       0.08420716       0.43350766      -0.00071605      -0.55434701      -0.38981965      -0.00285274       0.58647844       0.03623783      -0.02438449      -0.02272585      -0.00854635      -0.01311103       0.02841927       0.00056066      -0.00061764       0.00125563      -0.00397751      -0.00153235       0.00534702
9
Properties=species:S:1:pos:R:3:xtb2_normal_mode_displacements_0:R:3:xtb2_normal_mode_displacements_1:R:3:xtb2_normal_mode_displacements_2:R:3:xtb2_normal_mode_displacements_3:R:3:xtb2_normal_mode_displacements_4:R:3:xtb2_normal_mode_displacements_5:R:3:xtb2_normal_mode_displacements_6:R:3:xtb2_normal_mode_displacements_7:R:3:xtb2_normal_mode_displacements_8:R:3:xtb2_normal_mode_displacements_9:R:3:xtb2_normal_mode_displacements_10:R:3:xtb2_normal_mode_displacements_11:R:3:xtb2_normal_mode_displacements_12:R:3:xtb2_normal_mode_displacements_13:R:3:xtb2_normal_mode_displacements_14:R:3:xtb2_normal_mode_displacements_15:R:3:xtb2_normal_mode_displacements_16:R:3:xtb2_normal_mode_displacements_17:R:3:xtb2_normal_mode_displacements_18:R:3:xtb2_normal_mode_displacements_19:R:3:xtb2_normal_mode_displacements_20:R:3:xtb2_normal_mode_displacements_21:R:3:xtb2_normal_mode_displacements_22:R:3:xtb2_normal_mode_displacements_23:R:3:xtb2_normal_mode_displacements_24:R:3:xtb2_normal_mode_displacements_25:R:3:xtb2_normal_mode_displacements_26:R:3 propene=T reference=T _ConfigSet_loc=" / 0 / 0" xtb2_normal_mode_frequencies="-0.0019461934127446617 -0.0012160035104524494 -9.93123452020089e-06 -1.3014229096056314e-06 2.01829311176581e-05 0.001182055215837519 0.020396585011163454 0.052646472270038644 0.0720661965517159 0.1107921441650487 0.11576844989559419 0.12116217101615684 0.12587386431539677 0.1301292403266887 0.14503383082407395 0.16000746051012865 0.17305063547571045 0.17607711388641958 0.183235233322014 0.184200200995007 0.21403806997450184 0.37170880543951323 0.3735009117214228 0.376824539972782 0.37858381524906215 0.3840148551557691 0.3873825460436433" pbc="F F F"
C       -0.01411993      -0.00721196      -0.00000141      -0.00018484      -0.00006232      -0.14700365      -0.09212380      -0.03163889       0.00081388       0.00050246       0.00109785       0.33605481       0.30146046      -0.14226065       0.00001578       0.14025167       0.30087247      -0.00119299       0.00023600       0.00006442       0.10304089       0.00000042      -0.00000132      -0.09430485      -0.09701738       0.17667746      -0.00000038      -0.00000087      -0.00000076      -0.13912814       0.00000008       0.00000090       0.07919680       0.02104941       0.02966821       0.00000061      -0.03805961      -0.10937999       0.00000192      -0.00000012      -0.00000060       0.00351711      -0.00000039      -0.00000203      -0.13318641       0.01034389      -0.22655967       0.00000343       0.00440973       0.07800001      -0.00000119      -0.04011031       0.00509104      -0.00000001      -0.08035350      -0.03517561       0.00000065       0.00000006       0.00000011      -0.01181682       0.00207009       0.00179519      -0.00000008      -0.52029516      -0.07716670       0.00000223      -0.00000008      -0.00000001       0.00192081       0.00093338       0.00529737      -0.00000003      -0.01922576       0.02908937      -0.00000034       0.03965149      -0.06032606       0.00000069      -0.00279413      -0.00354144       0.00000005       0.00684677      -0.01257639       0.00000013
C        1.30202037      -0.05385892      -0.00000216      -0.00018444       0.00049407       0.16225851      -0.09229575       0.24032147       0.00002729       0.00050246       0.00109289       0.33530478       0.30146107      -0.14226385       0.00001538       0.14024844       0.30695895      -0.00119132       0.00023668      -0.00065616       0.19773506       0.00000082      -0.00000001       0.06913106      -0.10338774      -0.13436733       0.00000243      -0.00000062      -0.00000078       0.05006226      -0.00000048      -0.00000321      -0.15622235       0.02603792       0.10545320      -0.00000324      -0.11657114      -0.05848917       0.00000053      -0.00000070       0.00000034       0.03113218      -0.00000031      -0.00000060      -0.03415752      -0.00174871       0.09787693      -0.00000182       0.07372617      -0.06808843       0.00000095      -0.00961938      -0.00573576       0.00000012      -0.03655727       0.01011078      -0.00000011       0.00000001      -0.00000009      -0.00100521       0.02851820      -0.00007918      -0.00000005       0.46282307       0.00614317      -0.00000123       0.00000003       0.00000000       0.00022002      -0.00109131       0.00058150       0.00000000       0.00036708      -0.00042689       0.00000001      -0.00315517       0.01095426      -0.00000016       0.06134740      -0.02404248       0.00000021      -0.01797284      -0.09123604       0.00000138
H       -0.49317036       0.97425656      -0.00001171      -0.00057720      -0.00029473      -0.52278016      -0.28517891      -0.14391174       0.00268754       0.00050597       0.00109994       0.34095234       0.30146798      -0.14225445       0.00001672       0.13592192       0.29835260      -0.00116794       0.00074992       0.00036575       0.30808101       0.00000137      -0.00000242      -0.24110632      -0.06379115       0.18204692      -0.00000890       0.00000057       0.00000595       0.37562491       0.00000247      -0.00000208      -0.29747072      -0.28749309      -0.14771481       0.00000010      -0.24737010      -0.23404283       0.00000714      -0.00000213      -0.00000894      -0.62138682       0.00000082       0.00000566       0.47327106      -0.18966448      -0.32053687       0.00000252      -0.83076652      -0.41407775       0.00000666      -0.05110253      -0.00069595      -0.00000027       0.09153297       0.06641310      -0.00000098      -0.00000014       0.00000042       0.03009094      -0.02893096      -0.01630472      -0.00000006       0.09341611       0.32206185      -0.00000491      -0.00000001       0.00000001      -0.00098587       0.03079063      -0.05370249       0.00000054       0.22840772      -0.39451688       0.00000451      -0.44272279       0.75396366      -0.00000866      -0.01545228       0.03002717      -0.00000033      -0.05873820       0.10694769      -0.00000121
H        1.79585754       0.96463335      -0.00002051      -0.00056703       0.00073225       0.05450902      -0.28056468       0.35838396       0.00119407       0.00050595       0.00109076       0.33947353       0.30145500      -0.14225979       0.00001596       0.13604797       0.30959084      -0.00116561       0.00073719      -0.00096564       0.47690998       0.00000128      -0.00000084       0.03668975       0.23220889      -0.34684761      -0.00000078       0.00000504       0.00000419       0.59610778      -0.00000412       0.00001505       0.83068971       0.52058993      -0.22168509       0.00000934      -0.31916403       0.06610723      -0.00000275      -0.00000050       0.00000307       0.21615231       0.00000030       0.00000279       0.20483697       0.31488038      -0.13019483       0.00000036      -0.04121456       0.02269696       0.00000009       0.28728469      -0.17396768       0.00000185       0.54988296      -0.33291287       0.00000335      -0.00000080       0.00000049       0.00539027      -0.09119498       0.06857005      -0.00000064      -0.08357487       0.36277264      -0.00000453       0.00000000      -0.00000001      -0.00243314      -0.00149107      -0.00250474      -0.00000001       0.01480606       0.02224586      -0.00000033      -0.05262717      -0.07570769       0.00000120      -0.24292805      -0.44209991       0.00000693       0.46647478       0.72342613      -0.00001153
C       -0.85211358      -1.16200179       0.00001501       0.00032843      -0.00041438      -0.02071977       0.16106191      -0.20620780      -0.00070711       0.00049781       0.00110099       0.33041712       0.30145177      -0.14225113       0.00001502       0.14592482       0.29696487      -0.00122747      -0.00043924       0.00052502      -0.27943326      -0.00000117       0.00000102       0.00809838       0.15731822       0.01686223      -0.00000178       0.00000104       0.00000107       0.01404126      -0.00000038       0.00000047      -0.01146581       0.00690840      -0.08751194       0.00000088       0.20297140       0.10921681      -0.00000283       0.00000136       0.00000140       0.07089068       0.00000070       0.00000192       0.12458419      -0.03531808       0.16738018      -0.00000206      -0.02309628       0.03310871      -0.00000025      -0.06499949      -0.09294416       0.00000141       0.06783537       0.05274920      -0.00000105      -0.00000068      -0.00000080      -0.06645431       0.03845747      -0.05414837       0.00000008       0.05593032       0.03714399      -0.00000045      -0.00000078       0.00000075       0.08740008       0.06167647      -0.00148734       0.00000143       0.03558923      -0.05412236       0.00000017       0.02400263      -0.02976827       0.00000020       0.00088645      -0.00177144       0.00000002       0.00227723      -0.00180065       0.00000002
H        1.97040317      -0.86482881       0.00000595       0.00020082       0.00073673       0.53811572       0.09703735       0.35719953      -0.00182844       0.00049894       0.00109065       0.33046286       0.30146477      -0.14226034       0.00001445       0.14447025       0.30956370      -0.00121576      -0.00026638      -0.00096933      -0.00090119       0.00000059       0.00000194       0.23307647      -0.43632557      -0.34156017       0.00001489      -0.00000609      -0.00001150      -0.50700554       0.00000705       0.00000920       0.41959693      -0.47236960      -0.22168739       0.00001006      -0.01626530       0.01577872       0.00000648      -0.00000231      -0.00000855      -0.58216990       0.00000015       0.00000447       0.33735421      -0.36656492      -0.15534445       0.00000434       0.28381900       0.07238065      -0.00000267       0.30953970       0.17558235      -0.00000331       0.50221862       0.31278762      -0.00000532      -0.00000051      -0.00000025       0.00785570      -0.09464722      -0.07243036       0.00000109      -0.13273208      -0.38242244       0.00000535       0.00000005      -0.00000006       0.00115822      -0.00088359      -0.00031925       0.00000002      -0.00615041       0.00178240      -0.00000004       0.05555510      -0.08145464       0.00000104      -0.43687674       0.74057729      -0.00000962      -0.27468565       0.39782529      -0.00000513
H       -0.17087828      -2.05650241       0.00001652       0.00070593      -0.00015543       0.36305873       0.34619601      -0.07958179      -0.00255800       0.00049435       0.00109861       0.32599045       0.30143826      -0.14225807       0.00001411       0.15005919       0.29979053      -0.00125224      -0.00093261       0.00018720      -0.46600924      -0.00000689      -0.00000385      -0.46925614       0.44746140       0.21413364      -0.00000775       0.00000232       0.00000233       0.20154231       0.00000334       0.00000303       0.04307107      -0.34761455      -0.31773411       0.00000426      -0.26677602      -0.19412992       0.00000299      -0.00000146      -0.00000095      -0.11340080       0.00000100       0.00000126      -0.22354306       0.45836507       0.47221295      -0.00000522       0.00391538       0.04282083      -0.00000048       0.39725168       0.25599656      -0.00000634      -0.16645193      -0.10825259       0.00000369       0.00000621       0.00000551       0.74196506       0.35108926       0.21592322      -0.00000443      -0.12548377      -0.08390090       0.00000140       0.00000081      -0.00000118       0.04397779       0.01821361       0.00991341       0.00000069      -0.50889552       0.72263145      -0.00000125      -0.26399890       0.37243573      -0.00000055      -0.01413043       0.02252081      -0.00000005      -0.01965513       0.03332267      -0.00000006
H       -1.48669308      -1.26035578      -0.88221728       0.20882005      -0.23428890      -0.17014915       0.16311940      -0.33752247      -0.00034284       0.00031140       0.00529291       0.33049042       0.30144464      -0.14224112       0.00001851       0.14597954       0.29401296      -0.00122602       0.06609852       0.22902164      -0.33144970      -0.42846504       0.19563930       0.32291416       0.16695705      -0.20648541      -0.00310216      -0.12526894      -0.25148834       0.11390379      -0.04893748      -0.05583768       0.02928304      -0.02825802       0.17072241       0.01709254       0.13675795       0.52257700       0.02547820       0.17959664       0.25745183      -0.07841264       0.31522388       0.38550855      -0.14121190       0.05070072      -0.16363940      -0.04805605      -0.03579474      -0.11822441       0.00976134       0.21206361       0.42914227      -0.17565940      -0.19621613      -0.13395962       0.16600512      -0.14369518       0.44155666       0.07967050      -0.47952786       0.21451575       0.34973461       0.13336122       0.09258862      -0.08421098      -0.43349874       0.00070846      -0.55431358      -0.38984771      -0.00286100      -0.58649641       0.03623756      -0.02438416       0.02272482      -0.00854844      -0.01311136      -0.02842101       0.00056053      -0.00061765      -0.00125577      -0.00397790      -0.00153243      -0.00534727
H       -1.48667901      -1.26034307       0.88225918      -0.20815514       0.23292093      -0.17014922       0.16417573      -0.34042301      -0.00033685       0.00068411      -0.00308609       0.33049047       0.30144516      -0.14224256       0.00001189       0.14597911       0.29396412      -0.00122987      -0.06699152      -0.22726670      -0.33144542       0.42846782      -0.19563030       0.32291032       0.16695760      -0.20648941       0.00310189       0.12527246       0.25149297       0.11389829       0.04893809       0.05583439       0.02928182      -0.02826016       0.17072002      -0.01709538       0.13675889       0.52257775      -0.02548751      -0.17959660      -0.25745009      -0.07840637      -0.31522619      -0.38551430      -0.14120133       0.05070619      -0.16363516       0.04805930      -0.03579436      -0.11822430      -0.00975910       0.21206524       0.42914480       0.17564945      -0.19621809      -0.13396397      -0.16599980       0.14369773      -0.44155360       0.07967560      -0.47953323       0.21451043      -0.34973000       0.13336138       0.09258813       0.08420716       0.43350766      -0.00071605      -0.55434701      -0.38981965      -0.00285274       0.58647844       0.03623783      -0.02438449      -0.02272585      -0.00854635      -0.01311103       0.02841927       0.00056066      -0.00061764       0.00125563      -0.00397751      -0.00153235       0.00534702
9
Properties=species:S:1:pos:R:3:xtb2_normal_mode_displacements_0:R:3:xtb2_normal_mode_displacements_1:R:3:xtb2_normal_mode_displacements_2:R:3:xtb2_normal_mode_displacements_3:R:3:xtb2_normal_mode_displacements_4:R:3:xtb2_normal_mode_displacements_5:R:3:xtb2_normal_mode_displacements_6:R:3:xtb2_normal_mode_displacements_7:R:3:xtb2_normal_mode_displacements_8:R:3:xtb2_normal_mode_displacements_9:R:3:xtb2_normal_mode_displacements_10:R:3:xtb2_normal_mode_displacements_11:R:3:xtb2_normal_mode_displacements_12:R:3:xtb2_normal_mode_displacements_13:R:3:xtb2_normal_mode_displacements_14:R:3:xtb2_normal_mode_displacements_15:R:3:xtb2_normal_mode_displacements_16:R:3:xtb2_normal_mode_displacements_17:R:3:xtb2_normal_mode_displacements_18:R:3:xtb2_normal_mode_displacements_19:R:3:xtb2_normal_mode_displacements_20:R:3:xtb2_normal_mode_displacements_21:R:3:xtb2_normal_mode_displacements_22:R:3:xtb2_normal_mode_displacements_23:R:3:xtb2_normal_mode_displacements_24:R:3:xtb2_normal_mode_displacements_25:R:3:xtb2_normal_mode_displacements_26:R:3 propene=T reference=T _ConfigSet_loc=" / 0 / 0" xtb2_normal_mode_frequencies="-0.0019461934127446617 -0.0012160035104524494 -9.93123452020089e-06 -1.3014229096056314e-06 2.01829311176581e-05 0.001182055215837519 0.020396585011163454 0.052646472270038644 0.0720661965517159 0.1107921441650487 0.11576844989559419 0.12116217101615684 0.12587386431539677 0.1301292403266887 0.14503383082407395 0.16000746051012865 0.17305063547571045 0.17607711388641958 0.183235233322014 0.184200200995007 0.21403806997450184 0.37170880543951323 0.3735009117214228 0.376824539972782 0.37858381524906215 0.3840148551557691 0.3873825460436433" pbc="F F F"
C       -0.02530383      -0.02297517      -0.00000174      -0.00018484      -0.00006232      -0.14700365      -0.09212380      -0.03163889       0.00081388       0.00050246       0.00109785       0.33605481       0.30146046      -0.14226065       0.00001578       0.14025167       0.30087247      -0.00119299       0.00023600       0.00006442       0.10304089       0.00000042      -0.00000132      -0.09430485      -0.09701738       0.17667746      -0.00000038      -0.00000087      -0.00000076      -0.13912814       0.00000008       0.00000090       0.07919680       0.02104941       0.02966821       0.00000061      -0.03805961      -0.10937999       0.00000192      -0.00000012      -0.00000060       0.00351711      -0.00000039      -0.00000203      -0.13318641       0.01034389      -0.22655967       0.00000343       0.00440973       0.07800001      -0.00000119      -0.04011031       0.00509104      -0.00000001      -0.08035350      -0.03517561       0.00000065       0.00000006       0.00000011      -0.01181682       0.00207009       0.00179519      -0.00000008      -0.52029516      -0.07716670       0.00000223      -0.00000008      -0.00000001       0.00192081       0.00093338       0.00529737      -0.00000003      -0.01922576       0.02908937      -0.00000034       0.03965149      -0.06032606       0.00000069      -0.00279413      -0.00354144       0.00000005       0.00684677      -0.01257639       0.00000013
C        1.28818598      -0.10988798      -0.00000044      -0.00018444       0.00049407       0.16225851      -0.09229575       0.24032147       0.00002729       0.00050246       0.00109289       0.33530478       0.30146107      -0.14226385       0.00001538       0.14024844       0.30695895      -0.00119132       0.00023668      -0.00065616       0.19773506       0.00000082      -0.00000001       0.06913106      -0.10338774      -0.13436733       0.00000243      -0.00000062      -0.00000078       0.05006226      -0.00000048      -0.00000321      -0.15622235       0.02603792       0.10545320      -0.00000324      -0.11657114      -0.05848917       0.00000053      -0.00000070       0.00000034       0.03113218      -0.00000031      -0.00000060      -0.03415752      -0.00174871       0.09787693      -0.00000182       0.07372617      -0.06808843       0.00000095      -0.00961938      -0.00573576       0.00000012      -0.03655727       0.01011078      -0.00000011       0.00000001      -0.00000009      -0.00100521       0.02851820      -0.00007918      -0.00000005       0.46282307       0.00614317      -0.00000123       0.00000003       0.00000000       0.00022002      -0.00109131       0.00058150       0.00000000       0.00036708      -0.00042689       0.00000001      -0.00315517       0.01095426      -0.00000016       0.06134740      -0.02404248       0.00000021      -0.01797284      -0.09123604       0.00000138
H       -0.44891950       0.99699278      -0.00001172      -0.00057720      -0.00029473      -0.52278016      -0.28517891      -0.14391174       0.00268754       0.00050597       0.00109994       0.34095234       0.30146798      -0.14225445       0.00001672       0.13592192       0.29835260      -0.00116794       0.00074992       0.00036575       0.30808101       0.00000137      -0.00000242      -0.24110632      -0.06379115       0.18204692      -0.00000890       0.00000057       0.00000595       0.37562491       0.00000247      -0.00000208      -0.29747072      -0.28749309      -0.14771481       0.00000010      -0.24737010      -0.23404283       0.00000714      -0.00000213      -0.00000894      -0.62138682       0.00000082       0.00000566       0.47327106      -0.18966448      -0.32053687       0.00000252      -0.83076652      -0.41407775       0.00000666      -0.05110253      -0.00069595      -0.00000027       0.09153297       0.06641310      -0.00000098      -0.00000014       0.00000042       0.03009094      -0.02893096      -0.01630472      -0.00000006       0.09341611       0.32206185      -0.00000491      -0.00000001       0.00000001      -0.00098587       0.03079063      -0.05370249       0.00000054       0.22840772      -0.39451688       0.00000451      -0.44272279       0.75396366      -0.00000866      -0.01545228       0.03002717      -0.00000033      -0.05873820       0.10694769      -0.00000121
H        1.71572848       0.99875505      -0.00002194      -0.00056703       0.00073225       0.05450902      -0.28056468       0.35838396       0.00119407       0.00050595       0.00109076       0.33947353       0.30145500      -0.14225979       0.00001596       0.13604797       0.30959084      -0.00116561       0.00073719      -0.00096564       0.47690998       0.00000128      -0.00000084       0.03668975       0.23220889      -0.34684761      -0.00000078       0.00000504       0.00000419       0.59610778      -0.00000412       0.00001505       0.83068971       0.52058993      -0.22168509       0.00000934      -0.31916403       0.06610723      -0.00000275      -0.00000050       0.00000307       0.21615231       0.00000030       0.00000279       0.20483697       0.31488038      -0.13019483       0.00000036      -0.04121456       0.02269696       0.00000009       0.28728469      -0.17396768       0.00000185       0.54988296      -0.33291287       0.00000335      -0.00000080       0.00000049       0.00539027      -0.09119498       0.06857005      -0.00000064      -0.08357487       0.36277264      -0.00000453       0.00000000      -0.00000001      -0.00243314      -0.00149107      -0.00250474      -0.00000001       0.01480606       0.02224586      -0.00000033      -0.05262717      -0.07570769       0.00000120      -0.24292805      -0.44209991       0.00000693       0.46647478       0.72342613      -0.00001153
C       -0.85578413      -1.11550522       0.00001454       0.00032843      -0.00041438      -0.02071977       0.16106191      -0.20620780      -0.00070711       0.00049781       0.00110099       0.33041712       0.30145177      -0.14225113       0.00001502       0.14592482       0.29696487      -0.00122747      -0.00043924       0.00052502      -0.27943326      -0.00000117       0.00000102       0.00809838       0.15731822       0.01686223      -0.00000178       0.00000104       0.00000107       0.01404126      -0.00000038       0.00000047      -0.01146581       0.00690840      -0.08751194       0.00000088       0.20297140       0.10921681      -0.00000283       0.00000136       0.00000140       0.07089068       0.00000070       0.00000192       0.12458419      -0.03531808       0.16738018      -0.00000206      -0.02309628       0.03310871      -0.00000025      -0.06499949      -0.09294416       0.00000141       0.06783537       0.05274920      -0.00000105      -0.00000068      -0.00000080      -0.06645431       0.03845747      -0.05414837       0.00000008       0.05593032       0.03714399      -0.00000045      -0.00000078       0.00000075       0.08740008       0.06167647      -0.00148734       0.00000143       0.03558923      -0.05412236       0.00000017       0.02400263      -0.02976827       0.00000020       0.00088645      -0.00177144       0.00000002       0.00227723      -0.00180065       0.00000002
H        2.04311016      -0.83070674       0.00000441       0.00020082       0.00073673       0.53811572       0.09703735       0.35719953      -0.00182844       0.00049894       0.00109065       0.33046286       0.30146477      -0.14226034       0.00001445       0.14447025       0.30956370      -0.00121576      -0.00026638      -0.00096933      -0.00090119       0.00000059       0.00000194       0.23307647      -0.43632557      -0.34156017       0.00001489      -0.00000609      -0.00001150      -0.50700554       0.00000705       0.00000920       0.41959693      -0.47236960      -0.22168739       0.00001006      -0.01626530       0.01577872       0.00000648      -0.00000231      -0.00000855      -0.58216990       0.00000015       0.00000447       0.33735421      -0.36656492      -0.15534445       0.00000434       0.28381900       0.07238065      -0.00000267       0.30953970       0.17558235      -0.00000331       0.50221862       0.31278762      -0.00000532      -0.00000051      -0.00000025       0.00785570      -0.09464722      -0.07243036       0.00000109      -0.13273208      -0.38242244       0.00000535       0.00000005      -0.00000006       0.00115822      -0.00088359      -0.00031925       0.00000002      -0.00615041       0.00178240      -0.00000004       0.05555510      -0.08145464       0.00000104      -0.43687674       0.74057729      -0.00000962      -0.27468565       0.39782529      -0.00000513
H       -0.11737355      -2.00759686       0.00001586       0.00070593      -0.00015543       0.36305873       0.34619601      -0.07958179      -0.00255800       0.00049435       0.00109861       0.32599045       0.30143826      -0.14225807       0.00001411       0.15005919       0.29979053      -0.00125224      -0.00093261       0.00018720      -0.46600924      -0.00000689      -0.00000385      -0.46925614       0.44746140       0.21413364      -0.00000775       0.00000232       0.00000233       0.20154231       0.00000334       0.00000303       0.04307107      -0.34761455      -0.31773411       0.00000426      -0.26677602      -0.19412992       0.00000299      -0.00000146      -0.00000095      -0.11340080       0.00000100       0.00000126      -0.22354306       0.45836507       0.47221295      -0.00000522       0.00391538       0.04282083      -0.00000048       0.39725168       0.25599656      -0.00000634      -0.16645193      -0.10825259       0.00000369       0.00000621       0.00000551       0.74196506       0.35108926       0.21592322      -0.00000443      -0.12548377      -0.08390090       0.00000140       0.00000081      -0.00000118       0.04397779       0.01821361       0.00991341       0.00000069      -0.50889552       0.72263145      -0.00000125      -0.26399890       0.37243573      -0.00000055      -0.01413043       0.02252081      -0.00000005      -0.01965513       0.03332267      -0.00000006
H       -1.48234362      -1.28663332      -0.88484816       0.20882005      -0.23428890      -0.17014915       0.16311940      -0.33752247      -0.00034284       0.00031140       0.00529291       0.33049042       0.30144464      -0.14224112       0.00001851       0.14597954       0.29401296      -0.00122602       0.06609852       0.22902164      -0.33144970      -0.42846504       0.19563930       0.32291416       0.16695705      -0.20648541      -0.00310216      -0.12526894      -0.25148834       0.11390379      -0.04893748      -0.05583768       0.02928304      -0.02825802       0.17072241       0.01709254       0.13675795       0.52257700       0.02547820       0.17959664       0.25745183      -0.07841264       0.31522388       0.38550855      -0.14121190       0.05070072      -0.16363940      -0.04805605      -0.03579474      -0.11822441       0.00976134       0.21206361       0.42914227      -0.17565940      -0.19621613      -0.13395962       0.16600512      -0.14369518       0.44155666       0.07967050      -0.47952786       0.21451575       0.34973461       0.13336122       0.09258862      -0.08421098      -0.43349874       0.00070846      -0.55431358      -0.38984771      -0.00286100      -0.58649641       0.03623756      -0.02438416       0.02272482      -0.00854844      -0.01311136      -0.02842101       0.00056053      -0.00061765      -0.00125577      -0.00397790      -0.00153243      -0.00534727
H       -1.48232921      -1.28662025       0.88489049      -0.20815514       0.23292093      -0.17014922       0.16417573      -0.34042301      -0.00033685       0.00068411      -0.00308609       0.33049047       0.30144516      -0.14224256       0.00001189       0.14597911       0.29396412      -0.00122987      -0.06699152      -0.22726670      -0.33144542       0.42846782      -0.19563030       0.32291032       0.16695760      -0.20648941       0.00310189       0.12527246       0.25149297       0.11389829       0.04893809       0.05583439       0.02928182      -0.02826016       0.17072002      -0.01709538       0.13675889       0.52257775      -0.02548751      -0.17959660      -0.25745009      -0.07840637      -0.31522619      -0.38551430      -0.14120133       0.05070619      -0.16363516       0.04805930      -0.03579436      -0.11822430      -0.00975910       0.21206524       0.42914480       0.17564945      -0.19621809      -0.13396397      -0.16599980       0.14369773      -0.44155360       0.07967560      -0.47953323       0.21451043      -0.34973000       0.13336138       0.09258813       0.08420716       0.43350766      -0.00071605      -0.55434701      -0.38981965      -0.00285274       0.58647844       0.03623783      -0.02438449      -0.02272585      -0.00854635      -0.01311103       0.02841927       0.00056066      -0.00061764       0.00125563      -0.00397751      -0.00153235       0.00534702
9
Properties=species:S:1:pos:R:3:xtb2_normal_mode_displacements_0:R:3:xtb2_normal_mode_displacements_1:R:3:xtb2_normal_mode_displacements_2:R:3:xtb2_normal_mode_displacements_3:R:3:xtb2_normal_mode_displacements_4:R:3:xtb2_normal_mode_displacements_5:R:3:xtb2_normal_mode_displacements_6:R:3:xtb2_normal_mode_displacements_7:R:3:xtb2_normal_mode_displacements_8:R:3:xtb2_normal_mode_displacements_9:R:3:xtb2_normal_mode_displacements_10:R:3:xtb2_normal_mode_displacements_11:R:3:xtb2_normal_mode_displacements_12:R:3:xtb2_normal_mode_displacements_13:R:3:xtb2_normal_mode_displacements_14:R:3:xtb2_normal_mode_displacements_15:R:3:xtb2_normal_mode_displacements_16:R:3:xtb2_normal_mode_displacements_17:R:3:xtb2_normal_mode_displacements_18:R:3:xtb2_normal_mode_displacements_19:R:3:xtb2_normal_mode_displacements_20:R:3:xtb2_normal_mode_displacements_21:R:3:xtb2_normal_mode_displacements_22:R:3:xtb2_normal_mode_displacements_23:R:3:xtb2_normal_mode_displacements_24:R:3:xtb2_normal_mode_displacements_25:R:3:xtb2_normal_mode_displacements_26:R:3 propene=T reference=T _ConfigSet_loc=" / 0 / 0" xtb2_normal_mode_frequencies="-0.0019461934127446617 -0.0012160035104524494 -9.93123452020089e-06 -1.3014229096056314e-06 2.01829311176581e-05 0.001182055215837519 0.020396585011163454 0.052646472270038644 0.0720661965517159 0.1107921441650487 0.11576844989559419 0.12116217101615684 0.12587386431539677 0.1301292403266887 0.14503383082407395 0.16000746051012865 0.17305063547571045 0.17607711388641958 0.183235233322014 0.184200200995007 0.21403806997450184 0.37170880543951323 0.3735009117214228 0.376824539972782 0.37858381524906215 0.3840148551557691 0.3873825460436433" pbc="F F F"
C       -0.03277668      -0.03350782      -0.00000195      -0.00018484      -0.00006232      -0.14700365      -0.09212380      -0.03163889       0.00081388       0.00050246       0.00109785       0.33605481       0.30146046      -0.14226065       0.00001578       0.14025167       0.30087247      -0.00119299       0.00023600       0.00006442       0.10304089       0.00000042      -0.00000132      -0.09430485      -0.09701738       0.17667746      -0.00000038      -0.00000087      -0.00000076      -0.13912814       0.00000008       0.00000090       0.07919680       0.02104941       0.02966821       0.00000061      -0.03805961      -0.10937999       0.00000192      -0.00000012      -0.00000060       0.00351711      -0.00000039      -0.00000203      -0.13318641       0.01034389      -0.22655967       0.00000343       0.00440973       0.07800001      -0.00000119      -0.04011031       0.00509104      -0.00000001      -0.08035350      -0.03517561       0.00000065       0.00000006       0.00000011      -0.01181682       0.00207009       0.00179519      -0.00000008      -0.52029516      -0.07716670       0.00000223      -0.00000008      -0.00000001       0.00192081       0.00093338       0.00529737      -0.00000003      -0.01922576       0.02908937      -0.00000034       0.03965149      -0.06032606       0.00000069      -0.00279413      -0.00354144       0.00000005       0.00684677      -0.01257639       0.00000013
C        1.27894214      -0.14732540       0.00000071      -0.00018444       0.00049407       0.16225851      -0.09229575       0.24032147       0.00002729       0.00050246       0.00109289       0.33530478       0.30146107      -0.14226385       0.00001538       0.14024844       0.30695895      -0.00119132       0.00023668      -0.00065616       0.19773506       0.00000082      -0.00000001       0.06913106      -0.10338774      -0.13436733       0.00000243      -0.00000062      -0.00000078       0.05006226      -0.00000048      -0.00000321      -0.15622235       0.02603792       0.10545320      -0.00000324      -0.11657114      -0.05848917       0.00000053      -0.00000070       0.00000034       0.03113218      -0.00000031      -0.00000060      -0.03415752      -0.00174871       0.09787693      -0.00000182       0.07372617      -0.06808843       0.00000095      -0.00961938      -0.00573576       0.00000012      -0.03655727       0.01011078      -0.00000011       0.00000001      -0.00000009      -0.00100521       0.02851820      -0.00007918      -0.00000005       0.46282307       0.00614317      -0.00000123       0.00000003       0.00000000       0.00022002      -0.00109131       0.00058150       0.00000000       0.00036708      -0.00042689       0.00000001      -0.00315517       0.01095426      -0.00000016       0.06134740      -0.02404248       0.00000021      -0.01797284      -0.09123604       0.00000138
H       -0.41935203       1.01218464      -0.00001173      -0.00057720      -0.00029473      -0.52278016      -0.28517891      -0.14391174       0.00268754       0.00050597       0.00109994       0.34095234       0.30146798      -0.14225445       0.00001672       0.13592192       0.29835260      -0.00116794       0.00074992       0.00036575       0.30808101       0.00000137      -0.00000242      -0.24110632      -0.06379115       0.18204692      -0.00000890       0.00000057       0.00000595       0.37562491       0.00000247      -0.00000208      -0.29747072      -0.28749309      -0.14771481       0.00000010      -0.24737010      -0.23404283       0.00000714      -0.00000213      -0.00000894      -0.62138682       0.00000082       0.00000566       0.47327106      -0.18966448      -0.32053687       0.00000252      -0.83076652      -0.41407775       0.00000666      -0.05110253      -0.00069595      -0.00000027       0.09153297       0.06641310      -0.00000098      -0.00000014       0.00000042       0.03009094      -0.02893096      -0.01630472      -0.00000006       0.09341611       0.32206185      -0.00000491      -0.00000001       0.00000001      -0.00098587       0.03079063      -0.05370249       0.00000054       0.22840772      -0.39451688       0.00000451      -0.44272279       0.75396366      -0.00000866      -0.01545228       0.03002717      -0.00000033      -0.05873820       0.10694769      -0.00000121
H        1.66218796       1.02155445      -0.00002290      -0.00056703       0.00073225       0.05450902      -0.28056468       0.35838396       0.00119407       0.00050595       0.00109076       0.33947353       0.30145500      -0.14225979       0.00001596       0.13604797       0.30959084      -0.00116561       0.00073719      -0.00096564       0.47690998       0.00000128      -0.00000084       0.03668975       0.23220889      -0.34684761      -0.00000078       0.00000504       0.00000419       0.59610778      -0.00000412       0.00001505       0.83068971       0.52058993      -0.22168509       0.00000934      -0.31916403       0.06610723      -0.00000275      -0.00000050       0.00000307       0.21615231       0.00000030       0.00000279       0.20483697       0.31488038      -0.13019483       0.00000036      -0.04121456       0.02269696       0.00000009       0.28728469      -0.17396768       0.00000185       0.54988296      -0.33291287       0.00000335      -0.00000080       0.00000049       0.00539027      -0.09119498       0.06857005      -0.00000064      -0.08357487       0.36277264      -0.00000453       0.00000000      -0.00000001      -0.00243314      -0.00149107      -0.00250474      -0.00000001       0.01480606       0.02224586      -0.00000033      -0.05262717      -0.07570769       0.00000120      -0.24292805      -0.44209991       0.00000693       0.46647478       0.72342613      -0.00001153
C       -0.85823671      -1.08443721       0.00001423       0.00032843      -0.00041438      -0.02071977       0.16106191      -0.20620780      -0.00070711       0.00049781       0.00110099       0.33041712       0.30145177      -0.14225113       0.00001502       0.14592482       0.29696487      -0.00122747      -0.00043924       0.00052502      -0.27943326      -0.00000117       0.00000102       0.00809838       0.15731822       0.01686223      -0.00000178       0.00000104       0.00000107       0.01404126      -0.00000038       0.00000047      -0.01146581       0.00690840      -0.08751194       0.00000088       0.20297140       0.10921681      -0.00000283       0.00000136       0.00000140       0.07089068       0.00000070       0.00000192       0.12458419      -0.03531808       0.16738018      -0.00000206      -0.02309628       0.03310871      -0.00000025      -0.06499949      -0.09294416       0.00000141       0.06783537       0.05274920      -0.00000105      -0.00000068      -0.00000080      -0.06645431       0.03845747      -0.05414837       0.00000008       0.05593032       0.03714399      -0.00000045      -0.00000078       0.00000075       0.08740008       0.06167647      -0.00148734       0.00000143       0.03558923      -0.05412236       0.00000017       0.02400263      -0.02976827       0.00000020       0.00088645      -0.00177144       0.00000002       0.00227723      -0.00180065       0.00000002
H        2.09169143      -0.80790711       0.00000337       0.00020082       0.00073673       0.53811572       0.09703735       0.35719953      -0.00182844       0.00049894       0.00109065       0.33046286       0.30146477      -0.14226034       0.00001445       0.14447025       0.30956370      -0.00121576      -0.00026638      -0.00096933      -0.00090119       0.00000059       0.00000194       0.23307647      -0.43632557      -0.34156017       0.00001489      -0.00000609      -0.00001150      -0.50700554       0.00000705       0.00000920       0.41959693      -0.47236960      -0.22168739       0.00001006      -0.01626530       0.01577872       0.00000648      -0.00000231      -0.00000855      -0.58216990       0.00000015       0.00000447       0.33735421      -0.36656492      -0.15534445       0.00000434       0.28381900       0.07238065      -0.00000267       0.30953970       0.17558235      -0.00000331       0.50221862       0.31278762      -0.00000532      -0.00000051      -0.00000025       0.00785570      -0.09464722      -0.07243036       0.00000109      -0.13273208      -0.38242244       0.00000535       0.00000005      -0.00000006       0.00115822      -0.00088359      -0.00031925       0.00000002      -0.00615041       0.00178240      -0.00000004       0.05555510      -0.08145464       0.00000104      -0.43687674       0.74057729      -0.00000962      -0.27468565       0.39782529      -0.00000513
H       -0.08162283      -1.97491922       0.00001542       0.00070593      -0.00015543       0.36305873       0.34619601      -0.07958179      -0.00255800       0.00049435       0.00109861       0.32599045       0.30143826      -0.14225807       0.00001411       0.15005919       0.29979053      -0.00125224      -0.00093261       0.00018720      -0.46600924      -0.00000689      -0.00000385      -0.46925614       0.44746140       0.21413364      -0.00000775       0.00000232       0.00000233       0.20154231       0.00000334       0.00000303       0.04307107      -0.34761455      -0.31773411       0.00000426      -0.26677602      -0.19412992       0.00000299      -0.00000146      -0.00000095      -0.11340080       0.00000100       0.00000126      -0.22354306       0.45836507       0.47221295      -0.00000522       0.00391538       0.04282083      -0.00000048       0.39725168       0.25599656      -0.00000634      -0.16645193      -0.10825259       0.00000369       0.00000621       0.00000551       0.74196506       0.35108926       0.21592322      -0.00000443      -0.12548377      -0.08390090       0.00000140       0.00000081      -0.00000118       0.04397779       0.01821361       0.00991341       0.00000069      -0.50889552       0.72263145      -0.00000125      -0.26399890       0.37243573      -0.00000055      -0.01413043       0.02252081      -0.00000005      -0.01965513       0.03332267      -0.00000006
H       -1.47943740      -1.30419142      -0.88660606       0.20882005      -0.23428890      -0.17014915       0.16311940      -0.33752247      -0.00034284       0.00031140       0.00529291       0.33049042       0.30144464      -0.14224112       0.00001851       0.14597954       0.29401296      -0.00122602       0.06609852       0.22902164      -0.33144970      -0.42846504       0.19563930       0.32291416       0.16695705      -0.20648541      -0.00310216      -0.12526894      -0.25148834       0.11390379      -0.04893748      -0.05583768       0.02928304      -0.02825802       0.17072241       0.01709254       0.13675795       0.52257700       0.02547820       0.17959664       0.25745183      -0.07841264       0.31522388       0.38550855      -0.14121190       0.05070072      -0.16363940      -0.04805605      -0.03579474      -0.11822441       0.00976134       0.21206361       0.42914227      -0.17565940      -0.19621613      -0.13395962       0.16600512      -0.14369518       0.44155666       0.07967050      -0.47952786       0.21451575       0.34973461       0.13336122       0.09258862      -0.08421098      -0.43349874       0.00070846      -0.55431358      -0.38984771      -0.00286100      -0.58649641       0.03623756      -0.02438416       0.02272482      -0.00854844      -0.01311136      -0.02842101       0.00056053      -0.00061765      -0.00125577      -0.00397790      -0.00153243      -0.00534727
H       -1.47942277      -1.30417810       0.88664868      -0.20815514       0.23292093      -0.17014922       0.16417573      -0.34042301      -0.00033685       0.00068411      -0.00308609       0.33049047       0.30144516      -0.14224256       0.00001189       0.14597911       0.29396412      -0.00122987      -0.06699152      -0.22726670      -0.33144542       0.42846782      -0.19563030       0.32291032       0.16695760      -0.20648941       0.00310189       0.12527246       0.25149297       0.11389829       0.04893809       0.05583439       0.02928182      -0.02826016       0.17072002      -0.01709538       0.13675889       0.52257775      -0.02548751      -0.17959660      -0.25745009      -0.07840637      -0.31522619      -0.38551430      -0.14120133       0.05070619      -0.16363516       0.04805930      -0.03579436      -0.11822430      -0.00975910       0.21206524       0.42914480       0.17564945      -0.19621809      -0.13396397      -0.16599980       0.14369773      -0.44155360       0.07967560      -0.47953323       0.21451043      -0.34973000       0.13336138       0.09258813       0.08420716       0.43350766      -0.00071605      -0.55434701      -0.38981965      -0.00285274       0.58647844       0.03623783      -0.02438449      -0.02272585      -0.00854635      -0.01311103       0.02841927       0.00056066      -0.00061764       0.00125563      -0.00397751      -0.00153235       0.00534702
9
Properties=species:S:1:pos:R:3:xtb2_normal_mode_displacements_0:R:3:xtb2_normal_mode_displacements_1:R:3:xtb2_normal_mode_displacements_2:R:3:xtb2_normal_mode_displacements_3:R:3:xtb2_normal_mode_displacements_4:R:3:xtb2_normal_mode_displacements_5:R:3:xtb2_normal_mode_displacements_6:R:3:xtb2_normal_mode_displacements_7:R:3:xtb2_normal_mode_displacements_8:R:3:xtb2_normal_mode_displacements_9:R:3:xtb2_normal_mode_displacements_10:R:3:xtb2_normal_mode_displacements_11:R:3:xtb2_normal_mode_displacements_12:R:3:xtb2_normal_mode_displacements_13:R:3:xtb2_normal_mode_displacements_14:R:3:xtb2_normal_mode_displacements_15:R:3:xtb2_normal_mode_displacements_16:R:3:xtb2_normal_mode_displacements_17:R:3:xtb2_normal_mode_displacements_18:R:3:xtb2_normal_mode_displacements_19:R:3:xtb2_normal_mode_displacements_20:R:3:xtb2_normal_mode_displacements_21:R:3:xtb2_normal_mode_displacements_22:R:3:xtb2_normal_mode_displacements_23:R:3:xtb2_normal_mode_displacements_24:R:3:xtb2_normal_mode_displacements_25:R:3:xtb2_normal_mode_displacements_26:R:3 propene=T reference=T _ConfigSet_loc=" / 0 / 0" xtb2_normal_mode_frequencies="-0.0019461934127446617 -0.0012160035104524494 -9.93123452020089e-06 -1.3014229096056314e-06 2.01829311176581e-05 0.001182055215837519 0.020396585011163454 0.052646472270038644 0.0720661965517159 0.1107921441650487 0.11576844989559419 0.12116217101615684 0.12587386431539677 0.1301292403266887 0.14503383082407395 0.16000746051012865 0.17305063547571045 0.17607711388641958 0.183235233322014 0.184200200995007 0.21403806997450184 0.37170880543951323 0.3735009117214228 0.376824539972782 0.37858381524906215 0.3840148551557691 0.3873825460436433" pbc="F F F"
C       -0.03540079      -0.03720639      -0.00000203      -0.00018484      -0.00006232      -0.14700365      -0.09212380      -0.03163889       0.00081388       0.00050246       0.00109785       0.33605481       0.30146046      -0.14226065       0.00001578       0.14025167       0.30087247      -0.00119299       0.00023600       0.00006442       0.10304089       0.00000042      -0.00000132      -0.09430485      -0.09701738       0.17667746      -0.00000038      -0.00000087      -0.00000076      -0.13912814       0.00000008       0.00000090       0.07919680       0.02104941       0.02966821       0.00000061      -0.03805961      -0.10937999       0.00000192      -0.00000012      -0.00000060       0.00351711      -0.00000039      -0.00000203      -0.13318641       0.01034389      -0.22655967       0.00000343       0.00440973       0.07800001      -0.00000119      -0.04011031       0.00509104      -0.00000001      -0.08035350      -0.03517561       0.00000065       0.00000006       0.00000011      -0.01181682       0.00207009       0.00179519      -0.00000008      -0.52029516      -0.07716670       0.00000223      -0.00000008      -0.00000001       0.00192081       0.00093338       0.00529737      -0.00000003      -0.01922576       0.02908937      -0.00000034       0.03965149      -0.06032606       0.00000069      -0.00279413      -0.00354144       0.00000005       0.00684677      -0.01257639       0.00000013
C        1.27569614      -0.16047168       0.00000112      -0.00018444       0.00049407       0.16225851      -0.09229575       0.24032147       0.00002729       0.00050246       0.00109289       0.33530478       0.30146107      -0.14226385       0.00001538       0.14024844       0.30695895      -0.00119132       0.00023668      -0.00065616       0.19773506       0.00000082      -0.00000001       0.06913106      -0.10338774      -0.13436733       0.00000243      -0.00000062      -0.00000078       0.05006226      -0.00000048      -0.00000321      -0.15622235       0.02603792       0.10545320      -0.00000324      -0.11657114      -0.05848917       0.00000053      -0.00000070       0.00000034       0.03113218      -0.00000031      -0.00000060      -0.03415752      -0.00174871       0.09787693      -0.00000182       0.07372617      -0.06808843       0.00000095      -0.00961938      -0.00573576       0.00000012      -0.03655727       0.01011078      -0.00000011       0.00000001      -0.00000009      -0.00100521       0.02851820      -0.00007918      -0.00000005       0.46282307       0.00614317      -0.00000123       0.00000003       0.00000000       0.00022002      -0.00109131       0.00058150       0.00000000       0.00036708      -0.00042689       0.00000001      -0.00315517       0.01095426      -0.00000016       0.06134740      -0.02404248       0.00000021      -0.01797284      -0.09123604       0.00000138
H       -0.40896931       1.01751931      -0.00001174      -0.00057720      -0.00029473      -0.52278016      -0.28517891      -0.14391174       0.00268754       0.00050597       0.00109994       0.34095234       0.30146798      -0.14225445       0.00001672       0.13592192       0.29835260      -0.00116794       0.00074992       0.00036575       0.30808101       0.00000137      -0.00000242      -0.24110632      -0.06379115       0.18204692      -0.00000890       0.00000057       0.00000595       0.37562491       0.00000247      -0.00000208      -0.29747072      -0.28749309      -0.14771481       0.00000010      -0.24737010      -0.23404283       0.00000714      -0.00000213      -0.00000894      -0.62138682       0.00000082       0.00000566       0.47327106      -0.18966448      -0.32053687       0.00000252      -0.83076652      -0.41407775       0.00000666      -0.05110253      -0.00069595      -0.00000027       0.09153297       0.06641310      -0.00000098      -0.00000014       0.00000042       0.03009094      -0.02893096      -0.01630472      -0.00000006       0.09341611       0.32206185      -0.00000491      -0.00000001       0.00000001      -0.00098587       0.03079063      -0.05370249       0.00000054       0.22840772      -0.39451688       0.00000451      -0.44272279       0.75396366      -0.00000866      -0.01545228       0.03002717      -0.00000033      -0.05873820       0.10694769      -0.00000121
H        1.64338703       1.02956053      -0.00002324      -0.00056703       0.00073225       0.05450902      -0.28056468       0.35838396       0.00119407       0.00050595       0.00109076       0.33947353       0.30145500      -0.14225979       0.00001596       0.13604797       0.30959084      -0.00116561       0.00073719      -0.00096564       0.47690998       0.00000128      -0.00000084       0.03668975       0.23220889      -0.34684761      -0.00000078       0.00000504       0.00000419       0.59610778      -0.00000412       0.00001505       0.83068971       0.52058993      -0.22168509       0.00000934      -0.31916403       0.06610723      -0.00000275      -0.00000050       0.00000307       0.21615231       0.00000030       0.00000279       0.20483697       0.31488038      -0.13019483       0.00000036      -0.04121456       0.02269696       0.00000009       0.28728469      -0.17396768       0.00000185       0.54988296      -0.33291287       0.00000335      -0.00000080       0.00000049       0.00539027      -0.09119498       0.06857005      -0.00000064      -0.08357487       0.36277264      -0.00000453       0.00000000      -0.00000001      -0.00243314      -0.00149107      -0.00250474      -0.00000001       0.01480606       0.02224586      -0.00000033      -0.05262717      -0.07570769       0.00000120      -0.24292805      -0.44209991       0.00000693       0.46647478       0.72342613      -0.00001153
C       -0.85909794      -1.07352758       0.00001412       0.00032843      -0.00041438      -0.02071977       0.16106191      -0.20620780      -0.00070711       0.00049781       0.00110099       0.33041712       0.30145177      -0.14225113       0.00001502       0.14592482       0.29696487      -0.00122747      -0.00043924       0.00052502      -0.27943326      -0.00000117       0.00000102       0.00809838       0.15731822       0.01686223      -0.00000178       0.00000104       0.00000107       0.01404126      -0.00000038       0.00000047      -0.01146581       0.00690840      -0.08751194       0.00000088       0.20297140       0.10921681      -0.00000283       0.00000136       0.00000140       0.07089068       0.00000070       0.00000192       0.12458419      -0.03531808       0.16738018      -0.00000206      -0.02309628       0.03310871      -0.00000025      -0.06499949      -0.09294416       0.00000141       0.06783537       0.05274920      -0.00000105      -0.00000068      -0.00000080      -0.06645431       0.03845747      -0.05414837       0.00000008       0.05593032       0.03714399      -0.00000045      -0.00000078       0.00000075       0.08740008       0.06167647      -0.00148734       0.00000143       0.03558923      -0.05412236       0.00000017       0.02400263      -0.02976827       0.00000020       0.00088645      -0.00177144       0.00000002       0.00227723      -0.00180065       0.00000002
H        2.10875090      -0.79990095       0.00000301       0.00020082       0.00073673       0.53811572       0.09703735       0.35719953      -0.00182844       0.00049894       0.00109065       0.33046286       0.30146477      -0.14226034       0.00001445       0.14447025       0.30956370      -0.00121576      -0.00026638      -0.00096933      -0.00090119       0.00000059       0.00000194       0.23307647      -0.43632557      -0.34156017       0.00001489      -0.00000609      -0.00001150      -0.50700554       0.00000705       0.00000920       0.41959693      -0.47236960      -0.22168739       0.00001006      -0.01626530       0.01577872       0.00000648      -0.00000231      -0.00000855      -0.58216990       0.00000015       0.00000447       0.33735421      -0.36656492      -0.15534445       0.00000434       0.28381900       0.07238065      -0.00000267       0.30953970       0.17558235      -0.00000331       0.50221862       0.31278762      -0.00000532      -0.00000051      -0.00000025       0.00785570      -0.09464722      -0.07243036       0.00000109      -0.13273208      -0.38242244       0.00000535       0.00000005      -0.00000006       0.00115822      -0.00088359      -0.00031925       0.00000002      -0.00615041       0.00178240      -0.00000004       0.05555510      -0.08145464       0.00000104      -0.43687674       0.74057729      -0.00000962      -0.27468565       0.39782529      -0.00000513
H       -0.06906885      -1.96344436       0.00001527       0.00070593      -0.00015543       0.36305873       0.34619601      -0.07958179      -0.00255800       0.00049435       0.00109861       0.32599045       0.30143826      -0.14225807       0.00001411       0.15005919       0.29979053      -0.00125224      -0.00093261       0.00018720      -0.46600924      -0.00000689      -0.00000385      -0.46925614       0.44746140       0.21413364      -0.00000775       0.00000232       0.00000233       0.20154231       0.00000334       0.00000303       0.04307107      -0.34761455      -0.31773411       0.00000426      -0.26677602      -0.19412992       0.00000299      -0.00000146      -0.00000095      -0.11340080       0.00000100       0.00000126      -0.22354306       0.45836507       0.47221295      -0.00000522       0.00391538       0.04282083      -0.00000048       0.39725168       0.25599656      -0.00000634      -0.16645193      -0.10825259       0.00000369       0.00000621       0.00000551       0.74196506       0.35108926       0.21592322      -0.00000443      -0.12548377      -0.08390090       0.00000140       0.00000081      -0.00000118       0.04397779       0.01821361       0.00991341       0.00000069      -0.50889552       0.72263145      -0.00000125      -0.26399890       0.37243573      -0.00000055      -0.01413043       0.02252081      -0.00000005      -0.01965513       0.03332267      -0.00000006
H       -1.47841687      -1.31035700      -0.88722335       0.20882005      -0.23428890      -0.17014915       0.16311940      -0.33752247      -0.00034284       0.00031140       0.00529291       0.33049042       0.30144464      -0.14224112       0.00001851       0.14597954       0.29401296      -0.00122602       0.06609852       0.22902164      -0.33144970      -0.42846504       0.19563930       0.32291416       0.16695705      -0.20648541      -0.00310216      -0.12526894      -0.25148834       0.11390379      -0.04893748      -0.05583768       0.02928304      -0.02825802       0.17072241       0.01709254       0.13675795       0.52257700       0.02547820       0.17959664       0.25745183      -0.07841264       0.31522388       0.38550855      -0.14121190       0.05070072      -0.16363940      -0.04805605      -0.03579474      -0.11822441       0.00976134       0.21206361       0.42914227      -0.17565940      -0.19621613      -0.13395962       0.16600512      -0.14369518       0.44155666       0.07967050      -0.47952786       0.21451575       0.34973461       0.13336122       0.09258862      -0.08421098      -0.43349874       0.00070846      -0.55431358      -0.38984771      -0.00286100      -0.58649641       0.03623756      -0.02438416       0.02272482      -0.00854844      -0.01311136      -0.02842101       0.00056053      -0.00061765      -0.00125577      -0.00397790      -0.00153243      -0.00534727
H       -1.47840216      -1.31034360       0.88726608      -0.20815514       0.23292093      -0.17014922       0.16417573      -0.34042301      -0.00033685       0.00068411      -0.00308609       0.33049047       0.30144516      -0.14224256       0.00001189       0.14597911       0.29396412      -0.00122987      -0.06699152      -0.22726670      -0.33144542       0.42846782      -0.19563030       0.32291032       0.16695760      -0.20648941       0.00310189       0.12527246       0.25149297       0.11389829       0.04893809       0.05583439       0.02928182      -0.02826016       0.17072002      -0.01709538       0.13675889       0.52257775      -0.02548751      -0.17959660      -0.25745009      -0.07840637      -0.31522619      -0.38551430      -0.14120133       0.05070619      -0.16363516       0.04805930      -0.03579436      -0.11822430      -0.00975910       0.21206524       0.42914480       0.17564945      -0.19621809      -0.13396397      -0.16599980       0.14369773      -0.44155360       0.07967560      -0.47953323       0.21451043      -0.34973000       0.13336138       0.09258813       0.08420716       0.43350766      -0.00071605      -0.55434701      -0.38981965      -0.00285274       0.58647844       0.03623783      -0.02438449      -0.02272585      -0.00854635      -0.01311103       0.02841927       0.00056066      -0.00061764       0.00125563      -0.00397751      -0.00153235       0.00534702
9
Properties=species:S:1:pos:R:3:xtb2_normal_mode_displacements_0:R:3:xtb2_normal_mode_displacements_1:R:3:xtb2_normal_mode_displacements_2:R:3:xtb2_normal_mode_displacements_3:R:3:xtb2_normal_mode_displacements_4:R:3:xtb2_normal_mode_displacements_5:R:3:xtb2_normal_mode_displacements_6:R:3:xtb2_normal_mode_displacements_7:R:3:xtb2_normal_mode_displacements_8:R:3:xtb2_normal_mode_displacements_9:R:3:xtb2_normal_mode_displacements_10:R:3:xtb2_normal_mode_displacements_11:R:3:xtb2_normal_mode_displacements_12:R:3:xtb2_normal_mode_displacements_13:R:3:xtb2_normal_mode_displacements_14:R:3:xtb2_normal_mode_displacements_15:R:3:xtb2_normal_mode_displacements_16:R:3:xtb2_normal_mode_displacements_17:R:3:xtb2_normal_mode_displacements_18:R:3:xtb2_normal_mode_displacements_19:R:3:xtb2_normal_mode_displacements_20:R:3:xtb2_normal_mode_displacements_21:R:3:xtb2_normal_mode_displacements_22:R:3:xtb2_normal_mode_displacements_23:R:3:xtb2_normal_mode_displacements_24:R:3:xtb2_normal_mode_displacements_25:R:3:xtb2_normal_mode_displacements_26:R:3 propene=T reference=T _ConfigSet_loc=" / 0 / 0" xtb2_normal_mode_frequencies="-0.0019461934127446617 -0.0012160035104524494 -9.93123452020089e-06 -1.3014229096056314e-06 2.01829311176581e-05 0.001182055215837519 0.020396585011163454 0.052646472270038644 0.0720661965517159 0.1107921441650487 0.11576844989559419 0.12116217101615684 0.12587386431539677 0.1301292403266887 0.14503383082407395 0.16000746051012865 0.17305063547571045 0.17607711388641958 0.183235233322014 0.184200200995007 0.21403806997450184 0.37170880543951323 0.3735009117214228 0.376824539972782 0.37858381524906215 0.3840148551557691 0.3873825460436433" pbc="F F F"
C       -0.03277668      -0.03350782      -0.00000195      -0.00018484      -0.00006232      -0.14700365      -0.09212380      -0.03163889       0.00081388       0.00050246       0.00109785       0.33605481       0.30146046      -0.14226065       0.00001578       0.14025167       0.30087247      -0.00119299       0.00023600       0.00006442       0.10304089       0.00000042      -0.00000132      -0.09430485      -0.09701738       0.17667746      -0.00000038      -0.00000087      -0.00000076      -0.13912814       0.00000008       0.00000090       0.07919680       0.02104941       0.02966821       0.00000061      -0.03805961      -0.10937999       0.00000192      -0.00000012      -0.00000060       0.00351711      -0.00000039      -0.00000203      -0.13318641       0.01034389      -0.22655967       0.00000343       0.00440973       0.07800001      -0.00000119      -0.04011031       0.00509104      -0.00000001      -0.08035350      -0.03517561       0.00000065       0.00000006       0.00000011      -0.01181682       0.00207009       0.00179519      -0.00000008      -0.52029516      -0.07716670       0.00000223      -0.00000008      -0.00000001       0.00192081       0.00093338       0.00529737      -0.00000003      -0.01922576       0.02908937      -0.00000034       0.03965149      -0.06032606       0.00000069      -0.00279413      -0.00354144       0.00000005       0.00684677      -0.01257639       0.00000013
C        1.27894214      -0.14732540       0.00000071      -0.00018444       0.00049407       0.16225851      -0.09229575       0.24032147       0.00002729       0.00050246       0.00109289       0.33530478       0.30146107      -0.14226385       0.00001538       0.14024844       0.30695895      -0.00119132       0.00023668      -0.00065616       0.19773506       0.00000082      -0.00000001       0.06913106      -0.10338774      -0.13436733       0.00000243      -0.00000062      -0.00000078       0.05006226      -0.00000048      -0.00000321      -0.15622235       0.02603792       0.10545320      -0.00000324      -0.11657114      -0.05848917       0.00000053      -0.00000070       0.00000034       0.03113218      -0.00000031      -0.00000060      -0.03415752      -0.00174871       0.09787693      -0.00000182       0.07372617      -0.06808843       0.00000095      -0.00961938      -0.00573576       0.00000012      -0.03655727       0.01011078      -0.00000011       0.00000001      -0.00000009      -0.00100521       0.02851820      -0.00007918      -0.00000005       0.46282307       0.00614317      -0.00000123       0.00000003       0.00000000       0.00022002      -0.00109131       0.00058150       0.00000000       0.00036708      -0.00042689       0.00000001      -0.00315517       0.01095426      -0.00000016       0.06134740      -0.02404248       0.00000021      -0.01797284      -0.09123604       0.00000138
H       -0.41935203       1.01218464      -0.00001173      -0.00057720      -0.00029473      -0.52278016      -0.28517891      -0.14391174       0.00268754       0.00050597       0.00109994       0.34095234       0.30146798      -0.14225445       0.00001672       0.13592192       0.29835260      -0.00116794       0.00074992       0.00036575       0.30808101       0.00000137      -0.00000242      -0.24110632      -0.06379115       0.18204692      -0.00000890       0.00000057       0.00000595       0.37562491       0.00000247      -0.00000208      -0.29747072      -0.28749309      -0.14771481       0.00000010      -0.24737010      -0.23404283       0.00000714      -0.00000213      -0.00000894      -0.62138682       0.00000082       0.00000566       0.47327106      -0.18966448      -0.32053687       0.00000252      -0.83076652      -0.41407775       0.00000666      -0.05110253      -0.00069595      -0.00000027       0.09153297       0.06641310      -0.00000098      -0.00000014       0.00000042       0.03009094      -0.02893096      -0.01630472      -0.00000006       0.09341611       0.32206185      -0.00000491      -0.00000001       0.00000001      -0.00098587       0.03079063      -0.05370249       0.00000054       0.22840772      -0.39451688       0.00000451      -0.44272279       0.75396366      -0.00000866      -0.01545228       0.03002717      -0.00000033      -0.05873820       0.10694769      -0.00000121
H        1.66218796       1.02155445      -0.00002290      -0.00056703       0.00073225       0.05450902      -0.28056468       0.35838396       0.00119407       0.00050595       0.00109076       0.33947353       0.30145500      -0.14225979       0.00001596       0.13604797       0.30959084      -0.00116561       0.00073719      -0.00096564       0.47690998       0.00000128      -0.00000084       0.03668975       0.23220889      -0.34684761      -0.00000078       0.00000504       0.00000419       0.59610778      -0.00000412       0.00001505       0.83068971       0.52058993      -0.22168509       0.00000934      -0.31916403       0.06610723      -0.00000275      -0.00000050       0.00000307       0.21615231       0.00000030       0.00000279       0.20483697       0.31488038      -0.13019483       0.00000036      -0.04121456       0.02269696       0.00000009       0.28728469      -0.17396768       0.00000185       0.54988296      -0.33291287       0.00000335      -0.00000080       0.00000049       0.00539027      -0.09119498       0.06857005      -0.00000064      -0.08357487       0.36277264      -0.00000453       0.00000000      -0.00000001      -0.00243314      -0.00149107      -0.00250474      -0.00000001       0.01480606       0.02224586      -0.00000033      -0.05262717      -0.07570769       0.00000120      -0.24292805      -0.44209991       0.00000693       0.46647478       0.72342613      -0.00001153
C       -0.85823671      -1.08443721       0.00001423       0.00032843      -0.00041438      -0.02071977       0.16106191      -0.20620780      -0.00070711       0.00049781       0.00110099       0.33041712       0.30145177      -0.14225113       0.00001502       0.14592482       0.29696487      -0.00122747      -0.00043924       0.00052502      -0.27943326      -0.00000117       0.00000102       0.00809838       0.15731822       0.01686223      -0.00000178       0.00000104       0.00000107       0.01404126      -0.00000038       0.00000047      -0.01146581       0.00690840      -0.08751194       0.00000088       0.20297140       0.10921681      -0.00000283       0.00000136       0.00000140       0.07089068       0.00000070       0.00000192       0.12458419      -0.03531808       0.16738018      -0.00000206      -0.02309628       0.03310871      -0.00000025      -0.06499949      -0.09294416       0.00000141       0.06783537       0.05274920      -0.00000105      -0.00000068      -0.00000080      -0.06645431       0.03845747      -0.05414837       0.00000008       0.05593032       0.03714399      -0.00000045      -0.00000078       0.00000075       0.08740008       0.06167647      -0.00148734       0.00000143       0.03558923      -0.05412236       0.00000017       0.02400263      -0.02976827       0.00000020       0.00088645      -0.00177144       0.00000002       0.00227723      -0.00180065       0.00000002
H        2.09169143      -0.80790711       0.00000337       0.00020082       0.00073673       0.53811572       0.09703735       0.35719953      -0.00182844       0.00049894       0.00109065       0.33046286       0.30146477      -0.14226034       0.00001445       0.14447025       0.30956370      -0.00121576      -0.00026638      -0.00096933      -0.00090119       0.00000059       0.00000194       0.23307647      -0.43632557      -0.34156017       0.00001489      -0.00000609      -0.00001150      -0.50700554       0.00000705       0.00000920       0.41959693      -0.47236960      -0.22168739       0.00001006      -0.01626530       0.01577872       0.00000648      -0.00000231      -0.00000855      -0.58216990       0.00000015       0.00000447       0.33735421      -0.36656492      -0.15534445       0.00000434       0.28381900       0.07238065      -0.00000267       0.30953970       0.17558235      -0.00000331       0.50221862       0.31278762      -0.00000532      -0.00000051      -0.00000025       0.00785570      -0.09464722      -0.07243036       0.00000109      -0.13273208      -0.38242244       0.00000535       0.00000005      -0.00000006       0.00115822      -0.00088359      -0.00031925       0.00000002      -0.00615041       0.00178240      -0.00000004       0.05555510      -0.08145464       0.00000104      -0.43687674       0.74057729      -0.00000962      -0.27468565       0.39782529      -0.00000513
H       -0.08162283      -1.97491922       0.00001542       0.00070593      -0.00015543       0.36305873       0.34619601      -0.07958179      -0.00255800       0.00049435       0.00109861       0.32599045       0.30143826      -0.14225807       0.00001411       0.15005919       0.29979053      -0.00125224      -0.00093261       0.00018720      -0.46600924      -0.00000689      -0.00000385      -0.46925614       0.44746140       0.21413364      -0.00000775       0.00000232       0.00000233       0.20154231       0.00000334       0.00000303       0.04307107      -0.34761455      -0.31773411       0.00000426      -0.26677602      -0.19412992       0.00000299      -0.00000146      -0.00000095      -0.11340080       0.00000100       0.00000126      -0.22354306       0.45836507       0.47221295      -0.00000522       0.00391538       0.04282083      -0.00000048       0.39725168       0.25599656      -0.00000634      -0.16645193      -0.10825259       0.00000369       0.00000621       0.00000551       0.74196506       0.35108926       0.21592322      -0.00000443      -0.12548377      -0.08390090       0.00000140       0.00000081      -0.00000118       0.04397779       0.01821361       0.00991341       0.00000069      -0.50889552       0.72263145      -0.00000125      -0.26399890       0.37243573      -0.00000055      -0.01413043       0.02252081      -0.00000005      -0.01965513       0.03332267      -0.00000006
H       -1.47943740      -1.30419142      -0.88660606       0.20882005      -0.23428890      -0.17014915       0.16311940      -0.33752247      -0.00034284       0.00031140       0.00529291       0.33049042       0.30144464      -0.14224112       0.00001851       0.14597954       0.29401296      -0.00122602       0.06609852       0.22902164      -0.33144970      -0.42846504       0.19563930       0.32291416       0.16695705      -0.20648541      -0.00310216      -0.12526894      -0.25148834       0.11390379      -0.04893748      -0.05583768       0.02928304      -0.02825802       0.17072241       0.01709254       0.13675795       0.52257700       0.02547820       0.17959664       0.25745183      -0.07841264       0.31522388       0.38550855      -0.14121190       0.05070072      -0.16363940      -0.04805605      -0.03579474      -0.11822441       0.00976134       0.21206361       0.42914227      -0.17565940      -0.19621613      -0.13395962       0.16600512      -0.14369518       0.44155666       0.07967050      -0.47952786       0.21451575       0.34973461       0.13336122       0.09258862      -0.08421098      -0.43349874       0.00070846      -0.55431358      -0.38984771      -0.00286100      -0.58649641       0.03623756      -0.02438416       0.02272482      -0.00854844      -0.01311136      -0.02842101       0.00056053      -0.00061765      -0.00125577      -0.00397790      -0.00153243      -0.00534727
H       -1.47942277      -1.30417810       0.88664868      -0.20815514       0.23292093      -0.17014922       0.16417573      -0.34042301      -0.00033685       0.00068411      -0.00308609       0.33049047       0.30144516      -0.14224256       0.00001189       0.14597911       0.29396412      -0.00122987      -0.06699152      -0.22726670      -0.33144542       0.42846782      -0.19563030       0.32291032       0.16695760      -0.20648941       0.00310189       0.12527246       0.25149297       0.11389829       0.04893809       0.05583439       0.02928182      -0.02826016       0.17072002      -0.01709538       0.13675889       0.52257775      -0.02548751      -0.17959660      -0.25745009      -0.07840637      -0.31522619      -0.38551430      -0.14120133       0.05070619      -0.16363516       0.04805930      -0.03579436      -0.11822430      -0.00975910       0.21206524       0.42914480       0.17564945      -0.19621809      -0.13396397      -0.16599980       0.14369773      -0.44155360       0.07967560      -0.47953323       0.21451043      -0.34973000       0.13336138       0.09258813       0.08420716       0.43350766      -0.00071605      -0.55434701      -0.38981965      -0.00285274       0.58647844       0.03623783      -0.02438449      -0.02272585      -0.00854635      -0.01311103       0.02841927       0.00056066      -0.00061764       0.00125563      -0.00397751      -0.00153235       0.00534702
9
Properties=species:S:1:pos:R:3:xtb2_normal_mode_displacements_0:R:3:xtb2_normal_mode_displacements_1:R:3:xtb2_normal_mode_displacements_2:R:3:xtb2_normal_mode_displacements_3:R:3:xtb2_normal_mode_displacements_4:R:3:xtb2_normal_mode_displacements_5:R:3:xtb2_normal_mode_displacements_6:R:3:xtb2_normal_mode_displacements_7:R:3:xtb2_normal_mode_displacements_8:R:3:xtb2_normal_mode_displacements_9:R:3:xtb2_normal_mode_displacements_10:R:3:xtb2_normal_mode_displacements_11:R:3:xtb2_normal_mode_displacements_12:R:3:xtb2_normal_mode_displacements_13:R:3:xtb2_normal_mode_displacements_14:R:3:xtb2_normal_mode_displacements_15:R:3:xtb2_normal_mode_displacements_16:R:3:xtb2_normal_mode_displacements_17:R:3:xtb2_normal_mode_displacements_18:R:3:xtb2_normal_mode_displacements_19:R:3:xtb2_normal_mode_displacements_20:R:3:xtb2_normal_mode_displacements_21:R:3:xtb2_normal_mode_displacements_22:R:3:xtb2_normal_mode_displacements_23:R:3:xtb2_normal_mode_displacements_24:R:3:xtb2_normal_mode_displacements_25:R:3:xtb2_normal_mode_displacements_26:R:3 propene=T reference=T _ConfigSet_loc=" / 0 / 0" xtb2_normal_mode_frequencies="-0.0019461934127446617 -0.0012160035104524494 -9.93123452020089e-06 -1.3014229096056314e-06 2.01829311176581e-05 0.001182055215837519 0.020396585011163454 0.052646472270038644 0.0720661965517159 0.1107921441650487 0.11576844989559419 0.12116217101615684 0.12587386431539677 0.1301292403266887 0.14503383082407395 0.16000746051012865 0.17305063547571045 0.17607711388641958 0.183235233322014 0.184200200995007 0.21403806997450184 0.37170880543951323 0.3735009117214228 0.376824539972782 0.37858381524906215 0.3840148551557691 0.3873825460436433" pbc="F F F"
C       -0.02530383      -0.02297517      -0.00000174      -0.00018484      -0.00006232      -0.14700365      -0.09212380      -0.03163889       0.00081388       0.00050246       0.00109785       0.33605481       0.30146046      -0.14226065       0.00001578       0.14025167       0.30087247      -0.00119299       0.00023600       0.00006442       0.10304089       0.00000042      -0.00000132      -0.09430485      -0.09701738       0.17667746      -0.00000038      -0.00000087      -0.00000076      -0.13912814       0.00000008       0.00000090       0.07919680       0.02104941       0.02966821       0.00000061      -0.03805961      -0.10937999       0.00000192      -0.00000012      -0.00000060       0.00351711      -0.00000039      -0.00000203      -0.13318641       0.01034389      -0.22655967       0.00000343       0.00440973       0.07800001      -0.00000119      -0.04011031       0.00509104      -0.00000001      -0.08035350      -0.03517561       0.00000065       0.00000006       0.00000011      -0.01181682       0.00207009       0.00179519      -0.00000008      -0.52029516      -0.07716670       0.00000223      -0.00000008      -0.00000001       0.00192081       0.00093338       0.00529737      -0.00000003      -0.01922576       0.02908937      -0.00000034       0.03965149      -0.06032606       0.00000069      -0.00279413      -0.00354144       0.00000005       0.00684677      -0.01257639       0.00000013
C        1.28818598      -0.10988798      -0.00000044      -0.00018444       0.00049407       0.16225851      -0.09229575       0.24032147       0.00002729       0.00050246       0.00109289       0.33530478       0.30146107      -0.14226385       0.00001538       0.14024844       0.30695895      -0.00119132       0.00023668      -0.00065616       0.19773506       0.00000082      -0.00000001       0.06913106      -0.10338774      -0.13436733       0.00000243      -0.00000062      -0.00000078       0.05006226      -0.00000048      -0.00000321      -0.15622235       0.02603792       0.10545320      -0.00000324      -0.11657114      -0.05848917       0.00000053      -0.00000070       0.00000034       0.03113218      -0.00000031      -0.00000060      -0.03415752      -0.00174871       0.09787693      -0.00000182       0.07372617      -0.06808843       0.00000095      -0.00961938      -0.00573576       0.00000012      -0.03655727       0.01011078      -0.00000011       0.00000001      -0.00000009      -0.00100521       0.02851820      -0.00007918      -0.00000005       0.46282307       0.00614317      -0.00000123       0.00000003       0.00000000       0.00022002      -0.00109131       0.00058150       0.00000000       0.00036708      -0.00042689       0.00000001      -0.00315517       0.01095426      -0.00000016       0.06134740      -0.02404248       0.00000021      -0.01797284      -0.09123604       0.00000138
H       -0.44891950       0.99699278      -0.00001172      -0.00057720      -0.00029473      -0.52278016      -0.28517891      -0.14391174       0.00268754       0.00050597       0.00109994       0.34095234       0.30146798      -0.14225445       0.00001672       0.13592192       0.29835260      -0.00116794       0.00074992       0.00036575       0.30808101       0.00000137      -0.00000242      -0.24110632      -0.06379115       0.18204692      -0.00000890       0.00000057       0.00000595       0.37562491       0.00000247      -0.00000208      -0.29747072      -0.28749309      -0.14771481       0.00000010      -0.24737010      -0.23404283       0.00000714      -0.00000213      -0.00000894      -0.62138682       0.00000082       0.00000566       0.47327106      -0.18966448      -0.32053687       0.00000252      -0.83076652      -0.41407775       0.00000666      -0.05110253      -0.00069595      -0.00000027       0.09153297       0.06641310      -0.00000098      -0.00000014       0.00000042       0.03009094      -0.02893096      -0.01630472      -0.00000006       0.09341611       0.32206185      -0.00000491      -0.00000001       0.00000001      -0.00098587       0.03079063      -0.05370249       0.00000054       0.22840772      -0.39451688       0.00000451      -0.44272279       0.75396366      -0.00000866      -0.01545228       0.03002717      -0.00000033      -0.05873820       0.10694769      -0.00000121
H        1.71572848       0.99875505      -0.00002194      -0.00056703       0.00073225       0.05450902      -0.28056468       0.35838396       0.00119407       0.00050595       0.00109076       0.33947353       0.30145500      -0.14225979       0.00001596       0.13604797       0.30959084      -0.00116561       0.00073719      -0.00096564       0.47690998       0.00000128      -0.00000084       0.03668975       0.23220889      -0.34684761      -0.00000078       0.00000504       0.00000419       0.59610778      -0.00000412       0.00001505       0.83068971       0.52058993      -0.22168509       0.00000934      -0.31916403       0.06610723      -0.00000275      -0.00000050       0.00000307       0.21615231       0.00000030       0.00000279       0.20483697       0.31488038      -0.13019483       0.00000036      -0.04121456       0.02269696       0.00000009       0.28728469      -0.17396768       0.00000185       0.54988296      -0.33291287       0.00000335      -0.00000080       0.00000049       0.00539027      -0.09119498       0.06857005      -0.00000064      -0.08357487       0.36277264      -0.00000453       0.00000000      -0.00000001      -0.00243314      -0.00149107      -0.00250474      -0.00000001       0.01480606       0.02224586      -0.00000033      -0.05262717      -0.07570769       0.00000120      -0.24292805      -0.44209991       0.00000693       0.46647478       0.72342613      -0.00001153
C       -0.85578413      -1.11550522       0.00001454       0.00032843      -0.00041438      -0.02071977       0.16106191      -0.20620780      -0.00070711       0.00049781       0.00110099       0.33041712       0.30145177      -0.14225113       0.00001502       0.14592482       0.29696487      -0.00122747      -0.00043924       0.00052502      -0.27943326      -0.00000117       0.00000102       0.00809838       0.15731822       0.01686223      -0.00000178       0.00000104       0.00000107       0.01404126      -0.00000038       0.00000047      -0.01146581       0.00690840      -0.08751194       0.00000088       0.20297140       0.10921681      -0.00000283       0.00000136       0.00000140       0.07089068       0.00000070       0.00000192       0.12458419      -0.03531808       0.16738018      -0.00000206      -0.02309628       0.03310871      -0.00000025      -0.06499949      -0.09294416       0.00000141       0.06783537       0.05274920      -0.00000105      -0.00000068      -0.00000080      -0.06645431       0.03845747      -0.05414837       0.00000008       0.05593032       0.03714399      -0.00000045      -0.00000078       0.00000075       0.08740008       0.06167647      -0.00148734       0.00000143       0.03558923      -0.05412236       0.00000017       0.02400263      -0.02976827       0.00000020       0.00088645      -0.00177144       0.00000002       0.00227723      -0.00180065       0.00000002
H        2.04311016      -0.83070674       0.00000441       0.00020082       0.00073673       0.53811572       0.09703735       0.35719953      -0.00182844       0.00049894       0.00109065       0.33046286       0.30146477      -0.14226034       0.00001445       0.14447025       0.30956370      -0.00121576      -0.00026638      -0.00096933      -0.00090119       0.00000059       0.00000194       0.23307647      -0.43632557      -0.34156017       0.00001489      -0.00000609      -0.00001150      -0.50700554       0.00000705       0.00000920       0.41959693      -0.47236960      -0.22168739       0.00001006      -0.01626530       0.01577872       0.00000648      -0.00000231      -0.00000855      -0.58216990       0.00000015       0.00000447       0.33735421      -0.36656492      -0.15534445       0.00000434       0.28381900       0.07238065      -0.00000267       0.30953970       0.17558235      -0.00000331       0.50221862       0.31278762      -0.00000532      -0.00000051      -0.00000025       0.00785570      -0.09464722      -0.07243036       0.00000109      -0.13273208      -0.38242244       0.00000535       0.00000005      -0.00000006       0.00115822      -0.00088359      -0.00031925       0.00000002      -0.00615041       0.00178240      -0.00000004       0.05555510      -0.08145464       0.00000104      -0.43687674       0.74057729      -0.00000962      -0.27468565       0.39782529      -0.00000513
H       -0.11737355      -2.00759686       0.00001586       0.00070593      -0.00015543       0.36305873       0.34619601      -0.07958179      -0.00255800       0.00049435       0.00109861       0.32599045       0.30143826      -0.14225807       0.00001411       0.15005919       0.29979053      -0.00125224      -0.00093261       0.00018720      -0.46600924      -0.00000689      -0.00000385      -0.46925614       0.44746140       0.21413364      -0.00000775       0.00000232       0.00000233       0.20154231       0.00000334       0.00000303       0.04307107      -0.34761455      -0.31773411       0.00000426      -0.26677602      -0.19412992       0.00000299      -0.00000146      -0.00000095      -0.11340080       0.00000100       0.00000126      -0.22354306       0.45836507       0.47221295      -0.00000522       0.00391538       0.04282083      -0.00000048       0.39725168       0.25599656      -0.00000634      -0.16645193      -0.10825259       0.00000369       0.00000621       0.00000551       0.74196506       0.35108926       0.21592322      -0.00000443      -0.12548377      -0.08390090       0.00000140       0.00000081      -0.00000118       0.04397779       0.01821361       0.00991341       0.00000069      -0.50889552       0.72263145      -0.00000125      -0.26399890       0.37243573      -0.00000055      -0.01413043       0.02252081      -0.00000005      -0.01965513       0.03332267      -0.00000006
H       -1.48234362      -1.28663332      -0.88484816       0.20882005      -0.23428890      -0.17014915       0.16311940      -0.33752247      -0.00034284       0.00031140       0.00529291       0.33049042       0.30144464      -0.14224112       0.00001851       0.14597954       0.29401296      -0.00122602       0.06609852       0.22902164      -0.33144970      -0.42846504       0.19563930       0.32291416       0.16695705      -0.20648541      -0.00310216      -0.12526894      -0.25148834       0.11390379      -0.04893748      -0.05583768       0.02928304      -0.02825802       0.17072241       0.01709254       0.13675795       0.52257700       0.02547820       0.17959664       0.25745183      -0.07841264       0.31522388       0.38550855      -0.14121190       0.05070072      -0.16363940      -0.04805605      -0.03579474      -0.11822441       0.00976134       0.21206361       0.42914227      -0.17565940      -0.19621613      -0.13395962       0.16600512      -0.14369518       0.44155666       0.07967050      -0.47952786       0.21451575       0.34973461       0.13336122       0.09258862      -0.08421098      -0.43349874       0.00070846      -0.55431358      -0.38984771      -0.00286100      -0.58649641       0.03623756      -0.02438416       0.02272482      -0.00854844      -0.01311136      -0.02842101       0.00056053      -0.00061765      -0.00125577      -0.00397790      -0.00153243      -0.00534727
H       -1.48232921      -1.28662025       0.88489049      -0.20815514       0.23292093      -0.17014922       0.16417573      -0.34042301      -0.00033685       0.00068411      -0.00308609       0.33049047       0.30144516      -0.14224256       0.00001189       0.14597911       0.29396412      -0.00122987      -0.06699152      -0.22726670      -0.33144542       0.42846782      -0.19563030       0.32291032       0.16695760      -0.20648941       0.00310189       0.12527246       0.25149297       0.11389829       0.04893809       0.05583439       0.02928182      -0.02826016       0.17072002      -0.01709538       0.13675889       0.52257775      -0.02548751      -0.17959660      -0.25745009      -0.07840637      -0.31522619      -0.38551430      -0.14120133       0.05070619      -0.16363516       0.04805930      -0.03579436      -0.11822430      -0.00975910       0.21206524       0.42914480       0.17564945      -0.19621809      -0.13396397      -0.16599980       0.14369773      -0.44155360       0.07967560      -0.47953323       0.21451043      -0.34973000       0.13336138       0.09258813       0.08420716       0.43350766      -0.00071605      -0.55434701      -0.38981965      -0.00285274       0.58647844       0.03623783      -0.02438449      -0.02272585      -0.00854635      -0.01311103       0.02841927       0.00056066      -0.00061764       0.00125563      -0.00397751      -0.00153235       0.00534702
9
Properties=species:S:1:pos:R:3:xtb2_normal_mode_displacements_0:R:3:xtb2_normal_mode_displacements_1:R:3:xtb2_normal_mode_displacements_2:R:3:xtb2_normal_mode_displacements_3:R:3:xtb2_normal_mode_displacements_4:R:3:xtb2_normal_mode_displacements_5:R:3:xtb2_normal_mode_displacements_6:R:3:xtb2_normal_mode_displacements_7:R:3:xtb2_normal_mode_displacements_8:R:3:xtb2_normal_mode_displacements_9:R:3:xtb2_normal_mode_displacements_10:R:3:xtb2_normal_mode_displacements_11:R:3:xtb2_normal_mode_displacements_12:R:3:xtb2_normal_mode_displacements_13:R:3:xtb2_normal_mode_displacements_14:R:3:xtb2_normal_mode_displacements_15:R:3:xtb2_normal_mode_displacements_16:R:3:xtb2_normal_mode_displacements_17:R:3:xtb2_normal_mode_displacements_18:R:3:xtb2_normal_mode_displacements_19:R:3:xtb2_normal_mode_displacements_20:R:3:xtb2_normal_mode_displacements_21:R:3:xtb2_normal_mode_displacements_22:R:3:xtb2_normal_mode_displacements_23:R:3:xtb2_normal_mode_displacements_24:R:3:xtb2_normal_mode_displacements_25:R:3:xtb2_normal_mode_displacements_26:R:3 propene=T reference=T _ConfigSet_loc=" / 0 / 0" xtb2_normal_mode_frequencies="-0.0019461934127446617 -0.0012160035104524494 -9.93123452020089e-06 -1.3014229096056314e-06 2.01829311176581e-05 0.001182055215837519 0.020396585011163454 0.052646472270038644 0.0720661965517159 0.1107921441650487 0.11576844989559419 0.12116217101615684 0.12587386431539677 0.1301292403266887 0.14503383082407395 0.16000746051012865 0.17305063547571045 0.17607711388641958 0.183235233322014 0.184200200995007 0.21403806997450184 0.37170880543951323 0.3735009117214228 0.376824539972782 0.37858381524906215 0.3840148551557691 0.3873825460436433" pbc="F F F"
C       -0.01411993      -0.00721196      -0.00000141      -0.00018484      -0.00006232      -0.14700365      -0.09212380      -0.03163889       0.00081388       0.00050246       0.00109785       0.33605481       0.30146046      -0.14226065       0.00001578       0.14025167       0.30087247      -0.00119299       0.00023600       0.00006442       0.10304089       0.00000042      -0.00000132      -0.09430485      -0.09701738       0.17667746      -0.00000038      -0.00000087      -0.00000076      -0.13912814       0.00000008       0.00000090       0.07919680       0.02104941       0.02966821       0.00000061      -0.03805961      -0.10937999       0.00000192      -0.00000012      -0.00000060       0.00351711      -0.00000039      -0.00000203      -0.13318641       0.01034389      -0.22655967       0.00000343       0.00440973       0.07800001      -0.00000119      -0.04011031       0.00509104      -0.00000001      -0.08035350      -0.03517561       0.00000065       0.00000006       0.00000011      -0.01181682       0.00207009       0.00179519      -0.00000008      -0.52029516      -0.07716670       0.00000223      -0.00000008      -0.00000001       0.00192081       0.00093338       0.00529737      -0.00000003      -0.01922576       0.02908937      -0.00000034       0.03965149      -0.06032606       0.00000069      -0.00279413      -0.00354144       0.00000005       0.00684677      -0.01257639       0.00000013
C        1.30202037      -0.05385892      -0.00000216      -0.00018444       0.00049407       0.16225851      -0.09229575       0.24032147       0.00002729       0.00050246       0.00109289       0.33530478       0.30146107      -0.14226385       0.00001538       0.14024844       0.30695895      -0.00119132       0.00023668      -0.00065616       0.19773506       0.00000082      -0.00000001       0.06913106      -0.10338774      -0.13436733       0.00000243      -0.00000062      -0.00000078       0.05006226      -0.00000048      -0.00000321      -0.15622235       0.02603792       0.10545320      -0.00000324      -0.11657114      -0.05848917       0.00000053      -0.00000070       0.00000034       0.03113218      -0.00000031      -0.00000060      -0.03415752      -0.00174871       0.09787693      -0.00000182       0.07372617      -0.06808843       0.00000095      -0.00961938      -0.00573576       0.00000012      -0.03655727       0.01011078      -0.00000011       0.00000001      -0.00000009      -0.00100521       0.02851820      -0.00007918      -0.00000005       0.46282307       0.00614317      -0.00000123       0.00000003       0.00000000       0.00022002      -0.00109131       0.00058150       0.00000000       0.00036708      -0.00042689       0.00000001      -0.00315517       0.01095426      -0.00000016       0.06134740      -0.02404248       0.00000021      -0.01797284      -0.09123604       0.00000138
H       -0.49317036       0.97425656      -0.00001171      -0.00057720      -0.00029473      -0.52278016      -0.28517891      -0.14391174       0.00268754       0.00050597       0.00109994       0.34095234       0.30146798      -0.14225445       0.00001672       0.13592192       0.29835260      -0.00116794       0.00074992       0.00036575       0.30808101       0.00000137      -0.00000242      -0.24110632      -0.06379115       0.18204692      -0.00000890       0.00000057       0.00000595       0.37562491       0.00000247      -0.00000208      -0.29747072      -0.28749309      -0.14771481       0.00000010      -0.24737010      -0.23404283       0.00000714      -0.00000213      -0.00000894      -0.62138682       0.00000082       0.00000566       0.47327106      -0.18966448      -0.32053687       0.00000252      -0.83076652      -0.41407775       0.00000666      -0.05110253      -0.00069595      -0.00000027       0.09153297       0.06641310      -0.00000098      -0.00000014       0.00000042       0.03009094      -0.02893096      -0.01630472      -0.00000006       0.09341611       0.32206185      -0.00000491      -0.00000001       0.00000001      -0.00098587       0.03079063      -0.05370249       0.00000054       0.22840772      -0.39451688       0.00000451      -0.44272279       0.75396366      -0.00000866      -0.01545228       0.03002717      -0.00000033      -0.05873820       0.10694769      -0.00000121
H        1.79585754       0.96463335      -0.00002051      -0.00056703       0.00073225       0.05450902      -0.28056468       0.35838396       0.00119407       0.00050595       0.00109076       0.33947353       0.30145500      -0.14225979       0.00001596       0.13604797       0.30959084      -0.00116561       0.00073719      -0.00096564       0.47690998       0.00000128      -0.00000084       0.03668975       0.23220889      -0.34684761      -0.00000078       0.00000504       0.00000419       0.59610778      -0.00000412       0.00001505       0.83068971       0.52058993      -0.22168509       0.00000934      -0.31916403       0.06610723      -0.00000275      -0.00000050       0.00000307       0.21615231       0.00000030       0.00000279       0.20483697       0.31488038      -0.13019483       0.00000036      -0.04121456       0.02269696       0.00000009       0.28728469      -0.17396768       0.00000185       0.54988296      -0.33291287       0.00000335      -0.00000080       0.00000049       0.00539027      -0.09119498       0.06857005      -0.00000064      -0.08357487       0.36277264      -0.00000453       0.00000000      -0.00000001      -0.00243314      -0.00149107      -0.00250474      -0.00000001       0.01480606       0.02224586      -0.00000033      -0.05262717      -0.07570769       0.00000120      -0.24292805      -0.44209991       0.00000693       0.46647478       0.72342613      -0.00001153
C       -0.85211358      -1.16200179       0.00001501       0.00032843      -0.00041438      -0.02071977       0.16106191      -0.20620780      -0.00070711       0.00049781       0.00110099       0.33041712       0.30145177      -0.14225113       0.00001502       0.14592482       0.29696487      -0.00122747      -0.00043924       0.00052502      -0.27943326      -0.00000117       0.00000102       0.00809838       0.15731822       0.01686223      -0.00000178       0.00000104       0.00000107       0.01404126      -0.00000038       0.00000047      -0.01146581       0.00690840      -0.08751194       0.00000088       0.20297140       0.10921681      -0.00000283       0.00000136       0.00000140       0.07089068       0.00000070       0.00000192       0.12458419      -0.03531808       0.16738018      -0.00000206      -0.02309628       0.03310871      -0.00000025      -0.06499949      -0.09294416       0.00000141       0.06783537       0.05274920      -0.00000105      -0.00000068      -0.00000080      -0.06645431       0.03845747      -0.05414837       0.00000008       0.05593032       0.03714399      -0.00000045      -0.00000078       0.00000075       0.08740008       0.06167647      -0.00148734       0.00000143       0.03558923      -0.05412236       0.00000017       0.02400263      -0.02976827       0.00000020       0.00088645      -0.00177144       0.00000002       0.00227723      -0.00180065       0.00000002
H        1.97040317      -0.86482881       0.00000595       0.00020082       0.00073673       0.53811572       0.09703735       0.35719953      -0.00182844       0.00049894       0.00109065       0.33046286       0.30146477      -0.14226034       0.00001445       0.14447025       0.30956370      -0.00121576      -0.00026638      -0.00096933      -0.00090119       0.00000059       0.00000194       0.23307647      -0.43632557      -0.34156017       0.00001489      -0.00000609      -0.00001150      -0.50700554       0.00000705       0.00000920       0.41959693      -0.47236960      -0.22168739       0.00001006      -0.01626530       0.01577872       0.00000648      -0.00000231      -0.00000855      -0.58216990       0.00000015       0.00000447       0.33735421      -0.36656492      -0.15534445       0.00000434       0.28381900       0.07238065      -0.00000267       0.30953970       0.17558235      -0.00000331       0.50221862       0.31278762      -0.00000532      -0.00000051      -0.00000025       0.00785570      -0.09464722      -0.07243036       0.00000109      -0.13273208      -0.38242244       0.00000535       0.00000005      -0.00000006       0.00115822      -0.00088359      -0.00031925       0.00000002      -0.00615041       0.00178240      -0.00000004       0.05555510      -0.08145464       0.00000104      -0.43687674       0.74057729      -0.00000962      -0.27468565       0.39782529      -0.00000513
H       -0.17087828      -2.05650241       0.00001652       0.00070593      -0.00015543       0.36305873       0.34619601      -0.07958179      -0.00255800       0.00049435       0.00109861       0.32599045       0.30143826      -0.14225807       0.00001411       0.15005919       0.29979053      -0.00125224      -0.00093261       0.00018720      -0.46600924      -0.00000689      -0.00000385      -0.46925614       0.44746140       0.21413364      -0.00000775       0.00000232       0.00000233       0.20154231       0.00000334       0.00000303       0.04307107      -0.34761455      -0.31773411       0.00000426      -0.26677602      -0.19412992       0.00000299      -0.00000146      -0.00000095      -0.11340080       0.00000100       0.00000126      -0.22354306       0.45836507       0.47221295      -0.00000522       0.00391538       0.04282083      -0.00000048       0.39725168       0.25599656      -0.00000634      -0.16645193      -0.10825259       0.00000369       0.00000621       0.00000551       0.74196506       0.35108926       0.21592322      -0.00000443      -0.12548377      -0.08390090       0.00000140       0.00000081      -0.00000118       0.04397779       0.01821361       0.00991341       0.00000069      -0.50889552       0.72263145      -0.00000125      -0.26399890       0.37243573      -0.00000055      -0.01413043       0.02252081      -0.00000005      -0.01965513       0.03332267      -0.00000006
H       -1.48669308      -1.26035578      -0.88221728       0.20882005      -0.23428890      -0.17014915       0.16311940      -0.33752247      -0.00034284       0.00031140       0.00529291       0.33049042       0.30144464      -0.14224112       0.00001851       0.14597954       0.29401296      -0.00122602       0.06609852       0.22902164      -0.33144970      -0.42846504       0.19563930       0.32291416       0.16695705      -0.20648541      -0.00310216      -0.12526894      -0.25148834       0.11390379      -0.04893748      -0.05583768       0.02928304      -0.02825802       0.17072241       0.01709254       0.13675795       0.52257700       0.02547820       0.17959664       0.25745183      -0.07841264       0.31522388       0.38550855      -0.14121190       0.05070072      -0.16363940      -0.04805605      -0.03579474      -0.11822441       0.00976134       0.21206361       0.42914227      -0.17565940      -0.19621613      -0.13395962       0.16600512      -0.14369518       0.44155666       0.07967050      -0.47952786       0.21451575       0.34973461       0.13336122       0.09258862      -0.08421098      -0.43349874       0.00070846      -0.55431358      -0.38984771      -0.00286100      -0.58649641       0.03623756      -0.02438416       0.02272482      -0.00854844      -0.01311136      -0.02842101       0.00056053      -0.00061765      -0.00125577      -0.00397790      -0.00153243      -0.00534727
H       -1.48667901      -1.26034307       0.88225918      -0.20815514       0.23292093      -0.17014922       0.16417573      -0.34042301      -0.00033685       0.00068411      -0.00308609       0.33049047       0.30144516      -0.14224256       0.00001189       0.14597911       0.29396412      -0.00122987      -0.06699152      -0.22726670      -0.33144542       0.42846782      -0.19563030       0.32291032       0.16695760      -0.20648941       0.00310189       0.12527246       0.25149297       0.11389829       0.04893809       0.05583439       0.02928182      -0.02826016       0.17072002      -0.01709538       0.13675889       0.52257775      -0.02548751      -0.17959660      -0.25745009      -0.07840637      -0.31522619      -0.38551430      -0.14120133       0.05070619      -0.16363516       0.04805930      -0.03579436      -0.11822430      -0.00975910       0.21206524       0.42914480       0.17564945      -0.19621809      -0.13396397      -0.16599980       0.14369773      -0.44155360       0.07967560      -0.47953323       0.21451043      -0.34973000       0.13336138       0.09258813       0.08420716       0.43350766      -0.00071605      -0.55434701      -0.38981965      -0.00285274       0.58647844       0.03623783      -0.02438449      -0.02272585      -0.00854635      -0.01311103       0.02841927       0.00056066      -0.00061764       0.00125563      -0.00397751      -0.00153235       0.00534702
