9
Properties=species:S:1:pos:R:3:xtb2_normal_mode_displacements_0:R:3:xtb2_normal_mode_displacements_1:R:3:xtb2_normal_mode_displacements_2:R:3:xtb2_normal_mode_displacements_3:R:3:xtb2_normal_mode_displacements_4:R:3:xtb2_normal_mode_displacements_5:R:3:xtb2_normal_mode_displacements_6:R:3:xtb2_normal_mode_displacements_7:R:3:xtb2_normal_mode_displacements_8:R:3:xtb2_normal_mode_displacements_9:R:3:xtb2_normal_mode_displacements_10:R:3:xtb2_normal_mode_displacements_11:R:3:xtb2_normal_mode_displacements_12:R:3:xtb2_normal_mode_displacements_13:R:3:xtb2_normal_mode_displacements_14:R:3:xtb2_normal_mode_displacements_15:R:3:xtb2_normal_mode_displacements_16:R:3:xtb2_normal_mode_displacements_17:R:3:xtb2_normal_mode_displacements_18:R:3:xtb2_normal_mode_displacements_19:R:3:xtb2_normal_mode_displacements_20:R:3:xtb2_normal_mode_displacements_21:R:3:xtb2_normal_mode_displacements_22:R:3:xtb2_normal_mode_displacements_23:R:3:xtb2_normal_mode_displacements_24:R:3:xtb2_normal_mode_displacements_25:R:3:xtb2_normal_mode_displacements_26:R:3 propene=T reference=T _ConfigSet_loc=" / 0 / 0" xtb2_normal_mode_frequencies="-0.0019461934127446617 -0.0012160035104524494 -9.93123452020089e-06 -1.3014229096056314e-06 2.01829311176581e-05 0.001182055215837519 0.020396585011163454 0.052646472270038644 0.0720661965517159 0.1107921441650487 0.11576844989559419 0.12116217101615684 0.12587386431539677 0.1301292403266887 0.14503383082407395 0.16000746051012865 0.17305063547571045 0.17607711388641958 0.183235233322014 0.184200200995007 0.21403806997450184 0.37170880543951323 0.3735009117214228 0.376824539972782 0.37858381524906215 0.3840148551557691 0.3873825460436433" pbc="F F F"
C       -0.00092761       0.01138203      -0.00000103      -0.00018484      -0.00006232      -0.14700365      -0.09212380      -0.03163889       0.00081388       0.00050246       0.00109785       0.33605481       0.30146046      -0.14226065       0.00001578       0.14025167       0.30087247      -0.00119299       0.00023600       0.00006442       0.10304089       0.00000042      -0.00000132      -0.09430485      -0.09701738       0.17667746      -0.00000038      -0.00000087      -0.00000076      -0.13912814       0.00000008       0.00000090       0.07919680       0.02104941       0.02966821       0.00000061      -0.03805961      -0.10937999       0.00000192      -0.00000012      -0.00000060       0.00351711      -0.00000039      -0.00000203      -0.13318641       0.01034389      -0.22655967       0.00000343       0.00440973       0.07800001      -0.00000119      -0.04011031       0.00509104      -0.00000001      -0.08035350      -0.03517561       0.00000065       0.00000006       0.00000011      -0.01181682       0.00207009       0.00179519      -0.00000008      -0.52029516      -0.07716670       0.00000223      -0.00000008      -0.00000001       0.00192081       0.00093338       0.00529737      -0.00000003      -0.01922576       0.02908937      -0.00000034       0.03965149      -0.06032606       0.00000069      -0.00279413      -0.00354144       0.00000005       0.00684677      -0.01257639       0.00000013
C        1.31833914       0.01223186      -0.00000419      -0.00018444       0.00049407       0.16225851      -0.09229575       0.24032147       0.00002729       0.00050246       0.00109289       0.33530478       0.30146107      -0.14226385       0.00001538       0.14024844       0.30695895      -0.00119132       0.00023668      -0.00065616       0.19773506       0.00000082      -0.00000001       0.06913106      -0.10338774      -0.13436733       0.00000243      -0.00000062      -0.00000078       0.05006226      -0.00000048      -0.00000321      -0.15622235       0.02603792       0.10545320      -0.00000324      -0.11657114      -0.05848917       0.00000053      -0.00000070       0.00000034       0.03113218      -0.00000031      -0.00000060      -0.03415752      -0.00174871       0.09787693      -0.00000182       0.07372617      -0.06808843       0.00000095      -0.00961938      -0.00573576       0.00000012      -0.03655727       0.01011078      -0.00000011       0.00000001      -0.00000009      -0.00100521       0.02851820      -0.00007918      -0.00000005       0.46282307       0.00614317      -0.00000123       0.00000003       0.00000000       0.00022002      -0.00109131       0.00058150       0.00000000       0.00036708      -0.00042689       0.00000001      -0.00315517       0.01095426      -0.00000016       0.06134740      -0.02404248       0.00000021      -0.01797284      -0.09123604       0.00000138
H       -0.54536780       0.94743736      -0.00001169      -0.00057720      -0.00029473      -0.52278016      -0.28517891      -0.14391174       0.00268754       0.00050597       0.00109994       0.34095234       0.30146798      -0.14225445       0.00001672       0.13592192       0.29835260      -0.00116794       0.00074992       0.00036575       0.30808101       0.00000137      -0.00000242      -0.24110632      -0.06379115       0.18204692      -0.00000890       0.00000057       0.00000595       0.37562491       0.00000247      -0.00000208      -0.29747072      -0.28749309      -0.14771481       0.00000010      -0.24737010      -0.23404283       0.00000714      -0.00000213      -0.00000894      -0.62138682       0.00000082       0.00000566       0.47327106      -0.18966448      -0.32053687       0.00000252      -0.83076652      -0.41407775       0.00000666      -0.05110253      -0.00069595      -0.00000027       0.09153297       0.06641310      -0.00000098      -0.00000014       0.00000042       0.03009094      -0.02893096      -0.01630472      -0.00000006       0.09341611       0.32206185      -0.00000491      -0.00000001       0.00000001      -0.00098587       0.03079063      -0.05370249       0.00000054       0.22840772      -0.39451688       0.00000451      -0.44272279       0.75396366      -0.00000866      -0.01545228       0.03002717      -0.00000033      -0.05873820       0.10694769      -0.00000121
H        1.89037620       0.92438405      -0.00001881      -0.00056703       0.00073225       0.05450902      -0.28056468       0.35838396       0.00119407       0.00050595       0.00109076       0.33947353       0.30145500      -0.14225979       0.00001596       0.13604797       0.30959084      -0.00116561       0.00073719      -0.00096564       0.47690998       0.00000128      -0.00000084       0.03668975       0.23220889      -0.34684761      -0.00000078       0.00000504       0.00000419       0.59610778      -0.00000412       0.00001505       0.83068971       0.52058993      -0.22168509       0.00000934      -0.31916403       0.06610723      -0.00000275      -0.00000050       0.00000307       0.21615231       0.00000030       0.00000279       0.20483697       0.31488038      -0.13019483       0.00000036      -0.04121456       0.02269696       0.00000009       0.28728469      -0.17396768       0.00000185       0.54988296      -0.33291287       0.00000335      -0.00000080       0.00000049       0.00539027      -0.09119498       0.06857005      -0.00000064      -0.08357487       0.36277264      -0.00000453       0.00000000      -0.00000001      -0.00243314      -0.00149107      -0.00250474      -0.00000001       0.01480606       0.02224586      -0.00000033      -0.05262717      -0.07570769       0.00000120      -0.24292805      -0.44209991       0.00000693       0.46647478       0.72342613      -0.00001153
C       -0.84778387      -1.21684823       0.00001556       0.00032843      -0.00041438      -0.02071977       0.16106191      -0.20620780      -0.00070711       0.00049781       0.00110099       0.33041712       0.30145177      -0.14225113       0.00001502       0.14592482       0.29696487      -0.00122747      -0.00043924       0.00052502      -0.27943326      -0.00000117       0.00000102       0.00809838       0.15731822       0.01686223      -0.00000178       0.00000104       0.00000107       0.01404126      -0.00000038       0.00000047      -0.01146581       0.00690840      -0.08751194       0.00000088       0.20297140       0.10921681      -0.00000283       0.00000136       0.00000140       0.07089068       0.00000070       0.00000192       0.12458419      -0.03531808       0.16738018      -0.00000206      -0.02309628       0.03310871      -0.00000025      -0.06499949      -0.09294416       0.00000141       0.06783537       0.05274920      -0.00000105      -0.00000068      -0.00000080      -0.06645431       0.03845747      -0.05414837       0.00000008       0.05593032       0.03714399      -0.00000045      -0.00000078       0.00000075       0.08740008       0.06167647      -0.00148734       0.00000143       0.03558923      -0.05412236       0.00000017       0.02400263      -0.02976827       0.00000020       0.00088645      -0.00177144       0.00000002       0.00227723      -0.00180065       0.00000002
H        1.88463942      -0.90507852       0.00000778       0.00020082       0.00073673       0.53811572       0.09703735       0.35719953      -0.00182844       0.00049894       0.00109065       0.33046286       0.30146477      -0.14226034       0.00001445       0.14447025       0.30956370      -0.00121576      -0.00026638      -0.00096933      -0.00090119       0.00000059       0.00000194       0.23307647      -0.43632557      -0.34156017       0.00001489      -0.00000609      -0.00001150      -0.50700554       0.00000705       0.00000920       0.41959693      -0.47236960      -0.22168739       0.00001006      -0.01626530       0.01577872       0.00000648      -0.00000231      -0.00000855      -0.58216990       0.00000015       0.00000447       0.33735421      -0.36656492      -0.15534445       0.00000434       0.28381900       0.07238065      -0.00000267       0.30953970       0.17558235      -0.00000331       0.50221862       0.31278762      -0.00000532      -0.00000051      -0.00000025       0.00785570      -0.09464722      -0.07243036       0.00000109      -0.13273208      -0.38242244       0.00000535       0.00000005      -0.00000006       0.00115822      -0.00088359      -0.00031925       0.00000002      -0.00615041       0.00178240      -0.00000004       0.05555510      -0.08145464       0.00000104      -0.43687674       0.74057729      -0.00000962      -0.27468565       0.39782529      -0.00000513
H       -0.23399142      -2.11419043       0.00001729       0.00070593      -0.00015543       0.36305873       0.34619601      -0.07958179      -0.00255800       0.00049435       0.00109861       0.32599045       0.30143826      -0.14225807       0.00001411       0.15005919       0.29979053      -0.00125224      -0.00093261       0.00018720      -0.46600924      -0.00000689      -0.00000385      -0.46925614       0.44746140       0.21413364      -0.00000775       0.00000232       0.00000233       0.20154231       0.00000334       0.00000303       0.04307107      -0.34761455      -0.31773411       0.00000426      -0.26677602      -0.19412992       0.00000299      -0.00000146      -0.00000095      -0.11340080       0.00000100       0.00000126      -0.22354306       0.45836507       0.47221295      -0.00000522       0.00391538       0.04282083      -0.00000048       0.39725168       0.25599656      -0.00000634      -0.16645193      -0.10825259       0.00000369       0.00000621       0.00000551       0.74196506       0.35108926       0.21592322      -0.00000443      -0.12548377      -0.08390090       0.00000140       0.00000081      -0.00000118       0.04397779       0.01821361       0.00991341       0.00000069      -0.50889552       0.72263145      -0.00000125      -0.26399890       0.37243573      -0.00000055      -0.01413043       0.02252081      -0.00000005      -0.01965513       0.03332267      -0.00000006
H       -1.49182363      -1.22935930      -0.87911395       0.20882005      -0.23428890      -0.17014915       0.16311940      -0.33752247      -0.00034284       0.00031140       0.00529291       0.33049042       0.30144464      -0.14224112       0.00001851       0.14597954       0.29401296      -0.00122602       0.06609852       0.22902164      -0.33144970      -0.42846504       0.19563930       0.32291416       0.16695705      -0.20648541      -0.00310216      -0.12526894      -0.25148834       0.11390379      -0.04893748      -0.05583768       0.02928304      -0.02825802       0.17072241       0.01709254       0.13675795       0.52257700       0.02547820       0.17959664       0.25745183      -0.07841264       0.31522388       0.38550855      -0.14121190       0.05070072      -0.16363940      -0.04805605      -0.03579474      -0.11822441       0.00976134       0.21206361       0.42914227      -0.17565940      -0.19621613      -0.13395962       0.16600512      -0.14369518       0.44155666       0.07967050      -0.47952786       0.21451575       0.34973461       0.13336122       0.09258862      -0.08421098      -0.43349874       0.00070846      -0.55431358      -0.38984771      -0.00286100      -0.58649641       0.03623756      -0.02438416       0.02272482      -0.00854844      -0.01311136      -0.02842101       0.00056053      -0.00061765      -0.00125577      -0.00397790      -0.00153243      -0.00534727
H       -1.49180994      -1.22934703       0.87915533      -0.20815514       0.23292093      -0.17014922       0.16417573      -0.34042301      -0.00033685       0.00068411      -0.00308609       0.33049047       0.30144516      -0.14224256       0.00001189       0.14597911       0.29396412      -0.00122987      -0.06699152      -0.22726670      -0.33144542       0.42846782      -0.19563030       0.32291032       0.16695760      -0.20648941       0.00310189       0.12527246       0.25149297       0.11389829       0.04893809       0.05583439       0.02928182      -0.02826016       0.17072002      -0.01709538       0.13675889       0.52257775      -0.02548751      -0.17959660      -0.25745009      -0.07840637      -0.31522619      -0.38551430      -0.14120133       0.05070619      -0.16363516       0.04805930      -0.03579436      -0.11822430      -0.00975910       0.21206524       0.42914480       0.17564945      -0.19621809      -0.13396397      -0.16599980       0.14369773      -0.44155360       0.07967560      -0.47953323       0.21451043      -0.34973000       0.13336138       0.09258813       0.08420716       0.43350766      -0.00071605      -0.55434701      -0.38981965      -0.00285274       0.58647844       0.03623783      -0.02438449      -0.02272585      -0.00854635      -0.01311103       0.02841927       0.00056066      -0.00061764       0.00125563      -0.00397751      -0.00153235       0.00534702
9
Properties=species:S:1:pos:R:3:xtb2_normal_mode_displacements_0:R:3:xtb2_normal_mode_displacements_1:R:3:xtb2_normal_mode_displacements_2:R:3:xtb2_normal_mode_displacements_3:R:3:xtb2_normal_mode_displacements_4:R:3:xtb2_normal_mode_displacements_5:R:3:xtb2_normal_mode_displacements_6:R:3:xtb2_normal_mode_displacements_7:R:3:xtb2_normal_mode_displacements_8:R:3:xtb2_normal_mode_displacements_9:R:3:xtb2_normal_mode_displacements_10:R:3:xtb2_normal_mode_displacements_11:R:3:xtb2_normal_mode_displacements_12:R:3:xtb2_normal_mode_displacements_13:R:3:xtb2_normal_mode_displacements_14:R:3:xtb2_normal_mode_displacements_15:R:3:xtb2_normal_mode_displacements_16:R:3:xtb2_normal_mode_displacements_17:R:3:xtb2_normal_mode_displacements_18:R:3:xtb2_normal_mode_displacements_19:R:3:xtb2_normal_mode_displacements_20:R:3:xtb2_normal_mode_displacements_21:R:3:xtb2_normal_mode_displacements_22:R:3:xtb2_normal_mode_displacements_23:R:3:xtb2_normal_mode_displacements_24:R:3:xtb2_normal_mode_displacements_25:R:3:xtb2_normal_mode_displacements_26:R:3 propene=T reference=T _ConfigSet_loc=" / 0 / 0" xtb2_normal_mode_frequencies="-0.0019461934127446617 -0.0012160035104524494 -9.93123452020089e-06 -1.3014229096056314e-06 2.01829311176581e-05 0.001182055215837519 0.020396585011163454 0.052646472270038644 0.0720661965517159 0.1107921441650487 0.11576844989559419 0.12116217101615684 0.12587386431539677 0.1301292403266887 0.14503383082407395 0.16000746051012865 0.17305063547571045 0.17607711388641958 0.183235233322014 0.184200200995007 0.21403806997450184 0.37170880543951323 0.3735009117214228 0.376824539972782 0.37858381524906215 0.3840148551557691 0.3873825460436433" pbc="F F F"
C        0.00053615       0.01178159       0.63909624      -0.00018484      -0.00006232      -0.14700365      -0.09212380      -0.03163889       0.00081388       0.00050246       0.00109785       0.33605481       0.30146046      -0.14226065       0.00001578       0.14025167       0.30087247      -0.00119299       0.00023600       0.00006442       0.10304089       0.00000042      -0.00000132      -0.09430485      -0.09701738       0.17667746      -0.00000038      -0.00000087      -0.00000076      -0.13912814       0.00000008       0.00000090       0.07919680       0.02104941       0.02966821       0.00000061      -0.03805961      -0.10937999       0.00000192      -0.00000012      -0.00000060       0.00351711      -0.00000039      -0.00000203      -0.13318641       0.01034389      -0.22655967       0.00000343       0.00440973       0.07800001      -0.00000119      -0.04011031       0.00509104      -0.00000001      -0.08035350      -0.03517561       0.00000065       0.00000006       0.00000011      -0.01181682       0.00207009       0.00179519      -0.00000008      -0.52029516      -0.07716670       0.00000223      -0.00000008      -0.00000001       0.00192081       0.00093338       0.00529737      -0.00000003      -0.01922576       0.02908937      -0.00000034       0.03965149      -0.06032606       0.00000069      -0.00279413      -0.00354144       0.00000005       0.00684677      -0.01257639       0.00000013
C        1.31980712       0.00816212       1.22642094      -0.00018444       0.00049407       0.16225851      -0.09229575       0.24032147       0.00002729       0.00050246       0.00109289       0.33530478       0.30146107      -0.14226385       0.00001538       0.14024844       0.30695895      -0.00119132       0.00023668      -0.00065616       0.19773506       0.00000082      -0.00000001       0.06913106      -0.10338774      -0.13436733       0.00000243      -0.00000062      -0.00000078       0.05006226      -0.00000048      -0.00000321      -0.15622235       0.02603792       0.10545320      -0.00000324      -0.11657114      -0.05848917       0.00000053      -0.00000070       0.00000034       0.03113218      -0.00000031      -0.00000060      -0.03415752      -0.00174871       0.09787693      -0.00000182       0.07372617      -0.06808843       0.00000095      -0.00961938      -0.00573576       0.00000012      -0.03655727       0.01011078      -0.00000011       0.00000001      -0.00000009      -0.00100521       0.02851820      -0.00007918      -0.00000005       0.46282307       0.00614317      -0.00000123       0.00000003       0.00000000       0.00022002      -0.00109131       0.00058150       0.00000000       0.00036708      -0.00042689       0.00000001      -0.00315517       0.01095426      -0.00000016       0.06134740      -0.02404248       0.00000021      -0.01797284      -0.09123604       0.00000138
H       -0.54402035       0.94809454       0.55354611      -0.00057720      -0.00029473      -0.52278016      -0.28517891      -0.14391174       0.00268754       0.00050597       0.00109994       0.34095234       0.30146798      -0.14225445       0.00001672       0.13592192       0.29835260      -0.00116794       0.00074992       0.00036575       0.30808101       0.00000137      -0.00000242      -0.24110632      -0.06379115       0.18204692      -0.00000890       0.00000057       0.00000595       0.37562491       0.00000247      -0.00000208      -0.29747072      -0.28749309      -0.14771481       0.00000010      -0.24737010      -0.23404283       0.00000714      -0.00000213      -0.00000894      -0.62138682       0.00000082       0.00000566       0.47327106      -0.18966448      -0.32053687       0.00000252      -0.83076652      -0.41407775       0.00000666      -0.05110253      -0.00069595      -0.00000027       0.09153297       0.06641310      -0.00000098      -0.00000014       0.00000042       0.03009094      -0.02893096      -0.01630472      -0.00000006       0.09341611       0.32206185      -0.00000491      -0.00000001       0.00000001      -0.00098587       0.03079063      -0.05370249       0.00000054       0.22840772      -0.39451688       0.00000451      -0.44272279       0.75396366      -0.00000866      -0.01545228       0.03002717      -0.00000033      -0.05873820       0.10694769      -0.00000121
H        1.89170078       0.92264899       0.85688970      -0.00056703       0.00073225       0.05450902      -0.28056468       0.35838396       0.00119407       0.00050595       0.00109076       0.33947353       0.30145500      -0.14225979       0.00001596       0.13604797       0.30959084      -0.00116561       0.00073719      -0.00096564       0.47690998       0.00000128      -0.00000084       0.03668975       0.23220889      -0.34684761      -0.00000078       0.00000504       0.00000419       0.59610778      -0.00000412       0.00001505       0.83068971       0.52058993      -0.22168509       0.00000934      -0.31916403       0.06610723      -0.00000275      -0.00000050       0.00000307       0.21615231       0.00000030       0.00000279       0.20483697       0.31488038      -0.13019483       0.00000036      -0.04121456       0.02269696       0.00000009       0.28728469      -0.17396768       0.00000185       0.54988296      -0.33291287       0.00000335      -0.00000080       0.00000049       0.00539027      -0.09119498       0.06857005      -0.00000064      -0.08357487       0.36277264      -0.00000453       0.00000000      -0.00000001      -0.00243314      -0.00149107      -0.00250474      -0.00000001       0.01480606       0.02224586      -0.00000033      -0.05262717      -0.07570769       0.00000120      -0.24292805      -0.44209991       0.00000693       0.46647478       0.72342613      -0.00001153
C       -0.85050820      -1.21359186      -1.73313167       0.00032843      -0.00041438      -0.02071977       0.16106191      -0.20620780      -0.00070711       0.00049781       0.00110099       0.33041712       0.30145177      -0.14225113       0.00001502       0.14592482       0.29696487      -0.00122747      -0.00043924       0.00052502      -0.27943326      -0.00000117       0.00000102       0.00809838       0.15731822       0.01686223      -0.00000178       0.00000104       0.00000107       0.01404126      -0.00000038       0.00000047      -0.01146581       0.00690840      -0.08751194       0.00000088       0.20297140       0.10921681      -0.00000283       0.00000136       0.00000140       0.07089068       0.00000070       0.00000192       0.12458419      -0.03531808       0.16738018      -0.00000206      -0.02309628       0.03310871      -0.00000025      -0.06499949      -0.09294416       0.00000141       0.06783537       0.05274920      -0.00000105      -0.00000068      -0.00000080      -0.06645431       0.03845747      -0.05414837       0.00000008       0.05593032       0.03714399      -0.00000045      -0.00000078       0.00000075       0.08740008       0.06167647      -0.00148734       0.00000143       0.03558923      -0.05412236       0.00000017       0.02400263      -0.02976827       0.00000020       0.00088645      -0.00177144       0.00000002       0.00227723      -0.00180065       0.00000002
H        1.88416079      -0.90682021      -0.00161147       0.00020082       0.00073673       0.53811572       0.09703735       0.35719953      -0.00182844       0.00049894       0.00109065       0.33046286       0.30146477      -0.14226034       0.00001445       0.14447025       0.30956370      -0.00121576      -0.00026638      -0.00096933      -0.00090119       0.00000059       0.00000194       0.23307647      -0.43632557      -0.34156017       0.00001489      -0.00000609      -0.00001150      -0.50700554       0.00000705       0.00000920       0.41959693      -0.47236960      -0.22168739       0.00001006      -0.01626530       0.01577872       0.00000648      -0.00000231      -0.00000855      -0.58216990       0.00000015       0.00000447       0.33735421      -0.36656492      -0.15534445       0.00000434       0.28381900       0.07238065      -0.00000267       0.30953970       0.17558235      -0.00000331       0.50221862       0.31278762      -0.00000532      -0.00000051      -0.00000025       0.00785570      -0.09464722      -0.07243036       0.00000109      -0.13273208      -0.38242244       0.00000535       0.00000005      -0.00000006       0.00115822      -0.00088359      -0.00031925       0.00000002      -0.00615041       0.00178240      -0.00000004       0.05555510      -0.08145464       0.00000104      -0.43687674       0.74057729      -0.00000962      -0.27468565       0.39782529      -0.00000513
H       -0.23566713      -2.11385407      -0.83730484       0.00070593      -0.00015543       0.36305873       0.34619601      -0.07958179      -0.00255800       0.00049435       0.00109861       0.32599045       0.30143826      -0.14225807       0.00001411       0.15005919       0.29979053      -0.00125224      -0.00093261       0.00018720      -0.46600924      -0.00000689      -0.00000385      -0.46925614       0.44746140       0.21413364      -0.00000775       0.00000232       0.00000233       0.20154231       0.00000334       0.00000303       0.04307107      -0.34761455      -0.31773411       0.00000426      -0.26677602      -0.19412992       0.00000299      -0.00000146      -0.00000095      -0.11340080       0.00000100       0.00000126      -0.22354306       0.45836507       0.47221295      -0.00000522       0.00391538       0.04282083      -0.00000048       0.39725168       0.25599656      -0.00000634      -0.16645193      -0.10825259       0.00000369       0.00000621       0.00000551       0.74196506       0.35108926       0.21592322      -0.00000443      -0.12548377      -0.08390090       0.00000140       0.00000081      -0.00000118       0.04397779       0.01821361       0.00991341       0.00000069      -0.50889552       0.72263145      -0.00000125      -0.26399890       0.37243573      -0.00000055      -0.01413043       0.02252081      -0.00000005      -0.01965513       0.03332267      -0.00000006
H       -1.37305827      -0.81785482      -1.47466045       0.20882005      -0.23428890      -0.17014915       0.16311940      -0.33752247      -0.00034284       0.00031140       0.00529291       0.33049042       0.30144464      -0.14224112       0.00001851       0.14597954       0.29401296      -0.00122602       0.06609852       0.22902164      -0.33144970      -0.42846504       0.19563930       0.32291416       0.16695705      -0.20648541      -0.00310216      -0.12526894      -0.25148834       0.11390379      -0.04893748      -0.05583768       0.02928304      -0.02825802       0.17072241       0.01709254       0.13675795       0.52257700       0.02547820       0.17959664       0.25745183      -0.07841264       0.31522388       0.38550855      -0.14121190       0.05070072      -0.16363940      -0.04805605      -0.03579474      -0.11822441       0.00976134       0.21206361       0.42914227      -0.17565940      -0.19621613      -0.13395962       0.16600512      -0.14369518       0.44155666       0.07967050      -0.47952786       0.21451575       0.34973461       0.13336122       0.09258862      -0.08421098      -0.43349874       0.00070846      -0.55431358      -0.38984771      -0.00286100      -0.58649641       0.03623756      -0.02438416       0.02272482      -0.00854844      -0.01311136      -0.02842101       0.00056053      -0.00061765      -0.00125577      -0.00397790      -0.00153243      -0.00534727
H       -1.61217983      -1.63769824       0.28361653      -0.20815514       0.23292093      -0.17014922       0.16417573      -0.34042301      -0.00033685       0.00068411      -0.00308609       0.33049047       0.30144516      -0.14224256       0.00001189       0.14597911       0.29396412      -0.00122987      -0.06699152      -0.22726670      -0.33144542       0.42846782      -0.19563030       0.32291032       0.16695760      -0.20648941       0.00310189       0.12527246       0.25149297       0.11389829       0.04893809       0.05583439       0.02928182      -0.02826016       0.17072002      -0.01709538       0.13675889       0.52257775      -0.02548751      -0.17959660      -0.25745009      -0.07840637      -0.31522619      -0.38551430      -0.14120133       0.05070619      -0.16363516       0.04805930      -0.03579436      -0.11822430      -0.00975910       0.21206524       0.42914480       0.17564945      -0.19621809      -0.13396397      -0.16599980       0.14369773      -0.44155360       0.07967560      -0.47953323       0.21451043      -0.34973000       0.13336138       0.09258813       0.08420716       0.43350766      -0.00071605      -0.55434701      -0.38981965      -0.00285274       0.58647844       0.03623783      -0.02438449      -0.02272585      -0.00854635      -0.01311103       0.02841927       0.00056066      -0.00061764       0.00125563      -0.00397751      -0.00153235       0.00534702
9
Properties=species:S:1:pos:R:3:xtb2_normal_mode_displacements_0:R:3:xtb2_normal_mode_displacements_1:R:3:xtb2_normal_mode_displacements_2:R:3:xtb2_normal_mode_displacements_3:R:3:xtb2_normal_mode_displacements_4:R:3:xtb2_normal_mode_displacements_5:R:3:xtb2_normal_mode_displacements_6:R:3:xtb2_normal_mode_displacements_7:R:3:xtb2_normal_mode_displacements_8:R:3:xtb2_normal_mode_displacements_9:R:3:xtb2_normal_mode_displacements_10:R:3:xtb2_normal_mode_displacements_11:R:3:xtb2_normal_mode_displacements_12:R:3:xtb2_normal_mode_displacements_13:R:3:xtb2_normal_mode_displacements_14:R:3:xtb2_normal_mode_displacements_15:R:3:xtb2_normal_mode_displacements_16:R:3:xtb2_normal_mode_displacements_17:R:3:xtb2_normal_mode_displacements_18:R:3:xtb2_normal_mode_displacements_19:R:3:xtb2_normal_mode_displacements_20:R:3:xtb2_normal_mode_displacements_21:R:3:xtb2_normal_mode_displacements_22:R:3:xtb2_normal_mode_displacements_23:R:3:xtb2_normal_mode_displacements_24:R:3:xtb2_normal_mode_displacements_25:R:3:xtb2_normal_mode_displacements_26:R:3 propene=T reference=T _ConfigSet_loc=" / 0 / 0" xtb2_normal_mode_frequencies="-0.0019461934127446617 -0.0012160035104524494 -9.93123452020089e-06 -1.3014229096056314e-06 2.01829311176581e-05 0.001182055215837519 0.020396585011163454 0.052646472270038644 0.0720661965517159 0.1107921441650487 0.11576844989559419 0.12116217101615684 0.12587386431539677 0.1301292403266887 0.14503383082407395 0.16000746051012865 0.17305063547571045 0.17607711388641958 0.183235233322014 0.184200200995007 0.21403806997450184 0.37170880543951323 0.3735009117214228 0.376824539972782 0.37858381524906215 0.3840148551557691 0.3873825460436433" pbc="F F F"
C        0.00177706       0.01212031       1.18089674      -0.00018484      -0.00006232      -0.14700365      -0.09212380      -0.03163889       0.00081388       0.00050246       0.00109785       0.33605481       0.30146046      -0.14226065       0.00001578       0.14025167       0.30087247      -0.00119299       0.00023600       0.00006442       0.10304089       0.00000042      -0.00000132      -0.09430485      -0.09701738       0.17667746      -0.00000038      -0.00000087      -0.00000076      -0.13912814       0.00000008       0.00000090       0.07919680       0.02104941       0.02966821       0.00000061      -0.03805961      -0.10937999       0.00000192      -0.00000012      -0.00000060       0.00351711      -0.00000039      -0.00000203      -0.13318641       0.01034389      -0.22655967       0.00000343       0.00440973       0.07800001      -0.00000119      -0.04011031       0.00509104      -0.00000001      -0.08035350      -0.03517561       0.00000065       0.00000006       0.00000011      -0.01181682       0.00207009       0.00179519      -0.00000008      -0.52029516      -0.07716670       0.00000223      -0.00000008      -0.00000001       0.00192081       0.00093338       0.00529737      -0.00000003      -0.01922576       0.02908937      -0.00000034       0.03965149      -0.06032606       0.00000069      -0.00279413      -0.00354144       0.00000005       0.00684677      -0.01257639       0.00000013
C        1.32105161       0.00471195       2.26613396      -0.00018444       0.00049407       0.16225851      -0.09229575       0.24032147       0.00002729       0.00050246       0.00109289       0.33530478       0.30146107      -0.14226385       0.00001538       0.14024844       0.30695895      -0.00119132       0.00023668      -0.00065616       0.19773506       0.00000082      -0.00000001       0.06913106      -0.10338774      -0.13436733       0.00000243      -0.00000062      -0.00000078       0.05006226      -0.00000048      -0.00000321      -0.15622235       0.02603792       0.10545320      -0.00000324      -0.11657114      -0.05848917       0.00000053      -0.00000070       0.00000034       0.03113218      -0.00000031      -0.00000060      -0.03415752      -0.00174871       0.09787693      -0.00000182       0.07372617      -0.06808843       0.00000095      -0.00961938      -0.00573576       0.00000012      -0.03655727       0.01011078      -0.00000011       0.00000001      -0.00000009      -0.00100521       0.02851820      -0.00007918      -0.00000005       0.46282307       0.00614317      -0.00000123       0.00000003       0.00000000       0.00022002      -0.00109131       0.00058150       0.00000000       0.00036708      -0.00042689       0.00000001      -0.00315517       0.01095426      -0.00000016       0.06134740      -0.02404248       0.00000021      -0.01797284      -0.09123604       0.00000138
H       -0.54287804       0.94865166       1.02282975      -0.00057720      -0.00029473      -0.52278016      -0.28517891      -0.14391174       0.00268754       0.00050597       0.00109994       0.34095234       0.30146798      -0.14225445       0.00001672       0.13592192       0.29835260      -0.00116794       0.00074992       0.00036575       0.30808101       0.00000137      -0.00000242      -0.24110632      -0.06379115       0.18204692      -0.00000890       0.00000057       0.00000595       0.37562491       0.00000247      -0.00000208      -0.29747072      -0.28749309      -0.14771481       0.00000010      -0.24737010      -0.23404283       0.00000714      -0.00000213      -0.00000894      -0.62138682       0.00000082       0.00000566       0.47327106      -0.18966448      -0.32053687       0.00000252      -0.83076652      -0.41407775       0.00000666      -0.05110253      -0.00069595      -0.00000027       0.09153297       0.06641310      -0.00000098      -0.00000014       0.00000042       0.03009094      -0.02893096      -0.01630472      -0.00000006       0.09341611       0.32206185      -0.00000491      -0.00000001       0.00000001      -0.00098587       0.03079063      -0.05370249       0.00000054       0.22840772      -0.39451688       0.00000451      -0.44272279       0.75396366      -0.00000866      -0.01545228       0.03002717      -0.00000033      -0.05873820       0.10694769      -0.00000121
H        1.89282370       0.92117809       1.58334165      -0.00056703       0.00073225       0.05450902      -0.28056468       0.35838396       0.00119407       0.00050595       0.00109076       0.33947353       0.30145500      -0.14225979       0.00001596       0.13604797       0.30959084      -0.00116561       0.00073719      -0.00096564       0.47690998       0.00000128      -0.00000084       0.03668975       0.23220889      -0.34684761      -0.00000078       0.00000504       0.00000419       0.59610778      -0.00000412       0.00001505       0.83068971       0.52058993      -0.22168509       0.00000934      -0.31916403       0.06610723      -0.00000275      -0.00000050       0.00000307       0.21615231       0.00000030       0.00000279       0.20483697       0.31488038      -0.13019483       0.00000036      -0.04121456       0.02269696       0.00000009       0.28728469      -0.17396768       0.00000185       0.54988296      -0.33291287       0.00000335      -0.00000080       0.00000049       0.00539027      -0.09119498       0.06857005      -0.00000064      -0.08357487       0.36277264      -0.00000453       0.00000000      -0.00000001      -0.00243314      -0.00149107      -0.00250474      -0.00000001       0.01480606       0.02224586      -0.00000033      -0.05262717      -0.07570769       0.00000120      -0.24292805      -0.44209991       0.00000693       0.46647478       0.72342613      -0.00001153
C       -0.85281777      -1.21083125      -3.20242295       0.00032843      -0.00041438      -0.02071977       0.16106191      -0.20620780      -0.00070711       0.00049781       0.00110099       0.33041712       0.30145177      -0.14225113       0.00001502       0.14592482       0.29696487      -0.00122747      -0.00043924       0.00052502      -0.27943326      -0.00000117       0.00000102       0.00809838       0.15731822       0.01686223      -0.00000178       0.00000104       0.00000107       0.01404126      -0.00000038       0.00000047      -0.01146581       0.00690840      -0.08751194       0.00000088       0.20297140       0.10921681      -0.00000283       0.00000136       0.00000140       0.07089068       0.00000070       0.00000192       0.12458419      -0.03531808       0.16738018      -0.00000206      -0.02309628       0.03310871      -0.00000025      -0.06499949      -0.09294416       0.00000141       0.06783537       0.05274920      -0.00000105      -0.00000068      -0.00000080      -0.06645431       0.03845747      -0.05414837       0.00000008       0.05593032       0.03714399      -0.00000045      -0.00000078       0.00000075       0.08740008       0.06167647      -0.00148734       0.00000143       0.03558923      -0.05412236       0.00000017       0.02400263      -0.02976827       0.00000020       0.00088645      -0.00177144       0.00000002       0.00227723      -0.00180065       0.00000002
H        1.88375503      -0.90829673      -0.00298421       0.00020082       0.00073673       0.53811572       0.09703735       0.35719953      -0.00182844       0.00049894       0.00109065       0.33046286       0.30146477      -0.14226034       0.00001445       0.14447025       0.30956370      -0.00121576      -0.00026638      -0.00096933      -0.00090119       0.00000059       0.00000194       0.23307647      -0.43632557      -0.34156017       0.00001489      -0.00000609      -0.00001150      -0.50700554       0.00000705       0.00000920       0.41959693      -0.47236960      -0.22168739       0.00001006      -0.01626530       0.01577872       0.00000648      -0.00000231      -0.00000855      -0.58216990       0.00000015       0.00000447       0.33735421      -0.36656492      -0.15534445       0.00000434       0.28381900       0.07238065      -0.00000267       0.30953970       0.17558235      -0.00000331       0.50221862       0.31278762      -0.00000532      -0.00000051      -0.00000025       0.00785570      -0.09464722      -0.07243036       0.00000109      -0.13273208      -0.38242244       0.00000535       0.00000005      -0.00000006       0.00115822      -0.00088359      -0.00031925       0.00000002      -0.00615041       0.00178240      -0.00000004       0.05555510      -0.08145464       0.00000104      -0.43687674       0.74057729      -0.00000962      -0.27468565       0.39782529      -0.00000513
H       -0.23708772      -2.11356892      -1.54715227       0.00070593      -0.00015543       0.36305873       0.34619601      -0.07958179      -0.00255800       0.00049435       0.00109861       0.32599045       0.30143826      -0.14225807       0.00001411       0.15005919       0.29979053      -0.00125224      -0.00093261       0.00018720      -0.46600924      -0.00000689      -0.00000385      -0.46925614       0.44746140       0.21413364      -0.00000775       0.00000232       0.00000233       0.20154231       0.00000334       0.00000303       0.04307107      -0.34761455      -0.31773411       0.00000426      -0.26677602      -0.19412992       0.00000299      -0.00000146      -0.00000095      -0.11340080       0.00000100       0.00000126      -0.22354306       0.45836507       0.47221295      -0.00000522       0.00391538       0.04282083      -0.00000048       0.39725168       0.25599656      -0.00000634      -0.16645193      -0.10825259       0.00000369       0.00000621       0.00000551       0.74196506       0.35108926       0.21592322      -0.00000443      -0.12548377      -0.08390090       0.00000140       0.00000081      -0.00000118       0.04397779       0.01821361       0.00991341       0.00000069      -0.50889552       0.72263145      -0.00000125      -0.26399890       0.37243573      -0.00000055      -0.01413043       0.02252081      -0.00000005      -0.01965513       0.03332267      -0.00000006
H       -1.27237387      -0.46899817      -1.97954039       0.20882005      -0.23428890      -0.17014915       0.16311940      -0.33752247      -0.00034284       0.00031140       0.00529291       0.33049042       0.30144464      -0.14224112       0.00001851       0.14597954       0.29401296      -0.00122602       0.06609852       0.22902164      -0.33144970      -0.42846504       0.19563930       0.32291416       0.16695705      -0.20648541      -0.00310216      -0.12526894      -0.25148834       0.11390379      -0.04893748      -0.05583768       0.02928304      -0.02825802       0.17072241       0.01709254       0.13675795       0.52257700       0.02547820       0.17959664       0.25745183      -0.07841264       0.31522388       0.38550855      -0.14121190       0.05070072      -0.16363940      -0.04805605      -0.03579474      -0.11822441       0.00976134       0.21206361       0.42914227      -0.17565940      -0.19621613      -0.13395962       0.16600512      -0.14369518       0.44155666       0.07967050      -0.47952786       0.21451575       0.34973461       0.13336122       0.09258862      -0.08421098      -0.43349874       0.00070846      -0.55431358      -0.38984771      -0.00286100      -0.58649641       0.03623756      -0.02438416       0.02272482      -0.00854844      -0.01311136      -0.02842101       0.00056053      -0.00061765      -0.00125577      -0.00397790      -0.00153243      -0.00534727
H       -1.71422450      -1.98388168      -0.22125690      -0.20815514       0.23292093      -0.17014922       0.16417573      -0.34042301      -0.00033685       0.00068411      -0.00308609       0.33049047       0.30144516      -0.14224256       0.00001189       0.14597911       0.29396412      -0.00122987      -0.06699152      -0.22726670      -0.33144542       0.42846782      -0.19563030       0.32291032       0.16695760      -0.20648941       0.00310189       0.12527246       0.25149297       0.11389829       0.04893809       0.05583439       0.02928182      -0.02826016       0.17072002      -0.01709538       0.13675889       0.52257775      -0.02548751      -0.17959660      -0.25745009      -0.07840637      -0.31522619      -0.38551430      -0.14120133       0.05070619      -0.16363516       0.04805930      -0.03579436      -0.11822430      -0.00975910       0.21206524       0.42914480       0.17564945      -0.19621809      -0.13396397      -0.16599980       0.14369773      -0.44155360       0.07967560      -0.47953323       0.21451043      -0.34973000       0.13336138       0.09258813       0.08420716       0.43350766      -0.00071605      -0.55434701      -0.38981965      -0.00285274       0.58647844       0.03623783      -0.02438449      -0.02272585      -0.00854635      -0.01311103       0.02841927       0.00056066      -0.00061764       0.00125563      -0.00397751      -0.00153235       0.00534702
9
Properties=species:S:1:pos:R:3:xtb2_normal_mode_displacements_0:R:3:xtb2_normal_mode_displacements_1:R:3:xtb2_normal_mode_displacements_2:R:3:xtb2_normal_mode_displacements_3:R:3:xtb2_normal_mode_displacements_4:R:3:xtb2_normal_mode_displacements_5:R:3:xtb2_normal_mode_displacements_6:R:3:xtb2_normal_mode_displacements_7:R:3:xtb2_normal_mode_displacements_8:R:3:xtb2_normal_mode_displacements_9:R:3:xtb2_normal_mode_displacements_10:R:3:xtb2_normal_mode_displacements_11:R:3:xtb2_normal_mode_displacements_12:R:3:xtb2_normal_mode_displacements_13:R:3:xtb2_normal_mode_displacements_14:R:3:xtb2_normal_mode_displacements_15:R:3:xtb2_normal_mode_displacements_16:R:3:xtb2_normal_mode_displacements_17:R:3:xtb2_normal_mode_displacements_18:R:3:xtb2_normal_mode_displacements_19:R:3:xtb2_normal_mode_displacements_20:R:3:xtb2_normal_mode_displacements_21:R:3:xtb2_normal_mode_displacements_22:R:3:xtb2_normal_mode_displacements_23:R:3:xtb2_normal_mode_displacements_24:R:3:xtb2_normal_mode_displacements_25:R:3:xtb2_normal_mode_displacements_26:R:3 propene=T reference=T _ConfigSet_loc=" / 0 / 0" xtb2_normal_mode_frequencies="-0.0019461934127446617 -0.0012160035104524494 -9.93123452020089e-06 -1.3014229096056314e-06 2.01829311176581e-05 0.001182055215837519 0.020396585011163454 0.052646472270038644 0.0720661965517159 0.1107921441650487 0.11576844989559419 0.12116217101615684 0.12587386431539677 0.1301292403266887 0.14503383082407395 0.16000746051012865 0.17305063547571045 0.17607711388641958 0.183235233322014 0.184200200995007 0.21403806997450184 0.37170880543951323 0.3735009117214228 0.376824539972782 0.37858381524906215 0.3840148551557691 0.3873825460436433" pbc="F F F"
C        0.00260622       0.01234664       1.54291626      -0.00018484      -0.00006232      -0.14700365      -0.09212380      -0.03163889       0.00081388       0.00050246       0.00109785       0.33605481       0.30146046      -0.14226065       0.00001578       0.14025167       0.30087247      -0.00119299       0.00023600       0.00006442       0.10304089       0.00000042      -0.00000132      -0.09430485      -0.09701738       0.17667746      -0.00000038      -0.00000087      -0.00000076      -0.13912814       0.00000008       0.00000090       0.07919680       0.02104941       0.02966821       0.00000061      -0.03805961      -0.10937999       0.00000192      -0.00000012      -0.00000060       0.00351711      -0.00000039      -0.00000203      -0.13318641       0.01034389      -0.22655967       0.00000343       0.00440973       0.07800001      -0.00000119      -0.04011031       0.00509104      -0.00000001      -0.08035350      -0.03517561       0.00000065       0.00000006       0.00000011      -0.01181682       0.00207009       0.00179519      -0.00000008      -0.52029516      -0.07716670       0.00000223      -0.00000008      -0.00000001       0.00192081       0.00093338       0.00529737      -0.00000003      -0.01922576       0.02908937      -0.00000034       0.03965149      -0.06032606       0.00000069      -0.00279413      -0.00354144       0.00000005       0.00684677      -0.01257639       0.00000013
C        1.32188315       0.00240663       2.96084799      -0.00018444       0.00049407       0.16225851      -0.09229575       0.24032147       0.00002729       0.00050246       0.00109289       0.33530478       0.30146107      -0.14226385       0.00001538       0.14024844       0.30695895      -0.00119132       0.00023668      -0.00065616       0.19773506       0.00000082      -0.00000001       0.06913106      -0.10338774      -0.13436733       0.00000243      -0.00000062      -0.00000078       0.05006226      -0.00000048      -0.00000321      -0.15622235       0.02603792       0.10545320      -0.00000324      -0.11657114      -0.05848917       0.00000053      -0.00000070       0.00000034       0.03113218      -0.00000031      -0.00000060      -0.03415752      -0.00174871       0.09787693      -0.00000182       0.07372617      -0.06808843       0.00000095      -0.00961938      -0.00573576       0.00000012      -0.03655727       0.01011078      -0.00000011       0.00000001      -0.00000009      -0.00100521       0.02851820      -0.00007918      -0.00000005       0.46282307       0.00614317      -0.00000123       0.00000003       0.00000000       0.00022002      -0.00109131       0.00058150       0.00000000       0.00036708      -0.00042689       0.00000001      -0.00315517       0.01095426      -0.00000016       0.06134740      -0.02404248       0.00000021      -0.01797284      -0.09123604       0.00000138
H       -0.54211477       0.94902393       1.33639505      -0.00057720      -0.00029473      -0.52278016      -0.28517891      -0.14391174       0.00268754       0.00050597       0.00109994       0.34095234       0.30146798      -0.14225445       0.00001672       0.13592192       0.29835260      -0.00116794       0.00074992       0.00036575       0.30808101       0.00000137      -0.00000242      -0.24110632      -0.06379115       0.18204692      -0.00000890       0.00000057       0.00000595       0.37562491       0.00000247      -0.00000208      -0.29747072      -0.28749309      -0.14771481       0.00000010      -0.24737010      -0.23404283       0.00000714      -0.00000213      -0.00000894      -0.62138682       0.00000082       0.00000566       0.47327106      -0.18966448      -0.32053687       0.00000252      -0.83076652      -0.41407775       0.00000666      -0.05110253      -0.00069595      -0.00000027       0.09153297       0.06641310      -0.00000098      -0.00000014       0.00000042       0.03009094      -0.02893096      -0.01630472      -0.00000006       0.09341611       0.32206185      -0.00000491      -0.00000001       0.00000001      -0.00098587       0.03079063      -0.05370249       0.00000054       0.22840772      -0.39451688       0.00000451      -0.44272279       0.75396366      -0.00000866      -0.01545228       0.03002717      -0.00000033      -0.05873820       0.10694769      -0.00000121
H        1.89357401       0.92019526       2.06874133      -0.00056703       0.00073225       0.05450902      -0.28056468       0.35838396       0.00119407       0.00050595       0.00109076       0.33947353       0.30145500      -0.14225979       0.00001596       0.13604797       0.30959084      -0.00116561       0.00073719      -0.00096564       0.47690998       0.00000128      -0.00000084       0.03668975       0.23220889      -0.34684761      -0.00000078       0.00000504       0.00000419       0.59610778      -0.00000412       0.00001505       0.83068971       0.52058993      -0.22168509       0.00000934      -0.31916403       0.06610723      -0.00000275      -0.00000050       0.00000307       0.21615231       0.00000030       0.00000279       0.20483697       0.31488038      -0.13019483       0.00000036      -0.04121456       0.02269696       0.00000009       0.28728469      -0.17396768       0.00000185       0.54988296      -0.33291287       0.00000335      -0.00000080       0.00000049       0.00539027      -0.09119498       0.06857005      -0.00000064      -0.08357487       0.36277264      -0.00000453       0.00000000      -0.00000001      -0.00243314      -0.00149107      -0.00250474      -0.00000001       0.01480606       0.02224586      -0.00000033      -0.05262717      -0.07570769       0.00000120      -0.24292805      -0.44209991       0.00000693       0.46647478       0.72342613      -0.00001153
C       -0.85436098      -1.20898667      -4.18417199       0.00032843      -0.00041438      -0.02071977       0.16106191      -0.20620780      -0.00070711       0.00049781       0.00110099       0.33041712       0.30145177      -0.14225113       0.00001502       0.14592482       0.29696487      -0.00122747      -0.00043924       0.00052502      -0.27943326      -0.00000117       0.00000102       0.00809838       0.15731822       0.01686223      -0.00000178       0.00000104       0.00000107       0.01404126      -0.00000038       0.00000047      -0.01146581       0.00690840      -0.08751194       0.00000088       0.20297140       0.10921681      -0.00000283       0.00000136       0.00000140       0.07089068       0.00000070       0.00000192       0.12458419      -0.03531808       0.16738018      -0.00000206      -0.02309628       0.03310871      -0.00000025      -0.06499949      -0.09294416       0.00000141       0.06783537       0.05274920      -0.00000105      -0.00000068      -0.00000080      -0.06645431       0.03845747      -0.05414837       0.00000008       0.05593032       0.03714399      -0.00000045      -0.00000078       0.00000075       0.08740008       0.06167647      -0.00148734       0.00000143       0.03558923      -0.05412236       0.00000017       0.02400263      -0.02976827       0.00000020       0.00088645      -0.00177144       0.00000002       0.00227723      -0.00180065       0.00000002
H        1.88348391      -0.90928332      -0.00390144       0.00020082       0.00073673       0.53811572       0.09703735       0.35719953      -0.00182844       0.00049894       0.00109065       0.33046286       0.30146477      -0.14226034       0.00001445       0.14447025       0.30956370      -0.00121576      -0.00026638      -0.00096933      -0.00090119       0.00000059       0.00000194       0.23307647      -0.43632557      -0.34156017       0.00001489      -0.00000609      -0.00001150      -0.50700554       0.00000705       0.00000920       0.41959693      -0.47236960      -0.22168739       0.00001006      -0.01626530       0.01577872       0.00000648      -0.00000231      -0.00000855      -0.58216990       0.00000015       0.00000447       0.33735421      -0.36656492      -0.15534445       0.00000434       0.28381900       0.07238065      -0.00000267       0.30953970       0.17558235      -0.00000331       0.50221862       0.31278762      -0.00000532      -0.00000051      -0.00000025       0.00785570      -0.09464722      -0.07243036       0.00000109      -0.13273208      -0.38242244       0.00000535       0.00000005      -0.00000006       0.00115822      -0.00088359      -0.00031925       0.00000002      -0.00615041       0.00178240      -0.00000004       0.05555510      -0.08145464       0.00000104      -0.43687674       0.74057729      -0.00000962      -0.27468565       0.39782529      -0.00000513
H       -0.23803693      -2.11337839      -2.02145716       0.00070593      -0.00015543       0.36305873       0.34619601      -0.07958179      -0.00255800       0.00049435       0.00109861       0.32599045       0.30143826      -0.14225807       0.00001411       0.15005919       0.29979053      -0.00125224      -0.00093261       0.00018720      -0.46600924      -0.00000689      -0.00000385      -0.46925614       0.44746140       0.21413364      -0.00000775       0.00000232       0.00000233       0.20154231       0.00000334       0.00000303       0.04307107      -0.34761455      -0.31773411       0.00000426      -0.26677602      -0.19412992       0.00000299      -0.00000146      -0.00000095      -0.11340080       0.00000100       0.00000126      -0.22354306       0.45836507       0.47221295      -0.00000522       0.00391538       0.04282083      -0.00000048       0.39725168       0.25599656      -0.00000634      -0.16645193      -0.10825259       0.00000369       0.00000621       0.00000551       0.74196506       0.35108926       0.21592322      -0.00000443      -0.12548377      -0.08390090       0.00000140       0.00000081      -0.00000118       0.04397779       0.01821361       0.00991341       0.00000069      -0.50889552       0.72263145      -0.00000125      -0.26399890       0.37243573      -0.00000055      -0.01413043       0.02252081      -0.00000005      -0.01965513       0.03332267      -0.00000006
H       -1.20509869      -0.23589961      -2.31689038       0.20882005      -0.23428890      -0.17014915       0.16311940      -0.33752247      -0.00034284       0.00031140       0.00529291       0.33049042       0.30144464      -0.14224112       0.00001851       0.14597954       0.29401296      -0.00122602       0.06609852       0.22902164      -0.33144970      -0.42846504       0.19563930       0.32291416       0.16695705      -0.20648541      -0.00310216      -0.12526894      -0.25148834       0.11390379      -0.04893748      -0.05583768       0.02928304      -0.02825802       0.17072241       0.01709254       0.13675795       0.52257700       0.02547820       0.17959664       0.25745183      -0.07841264       0.31522388       0.38550855      -0.14121190       0.05070072      -0.16363940      -0.04805605      -0.03579474      -0.11822441       0.00976134       0.21206361       0.42914227      -0.17565940      -0.19621613      -0.13395962       0.16600512      -0.14369518       0.44155666       0.07967050      -0.47952786       0.21451575       0.34973461       0.13336122       0.09258862      -0.08421098      -0.43349874       0.00070846      -0.55431358      -0.38984771      -0.00286100      -0.58649641       0.03623756      -0.02438416       0.02272482      -0.00854844      -0.01311136      -0.02842101       0.00056053      -0.00061765      -0.00125577      -0.00397790      -0.00153243      -0.00534727
H       -1.78240857      -2.21519406      -0.55860253      -0.20815514       0.23292093      -0.17014922       0.16417573      -0.34042301      -0.00033685       0.00068411      -0.00308609       0.33049047       0.30144516      -0.14224256       0.00001189       0.14597911       0.29396412      -0.00122987      -0.06699152      -0.22726670      -0.33144542       0.42846782      -0.19563030       0.32291032       0.16695760      -0.20648941       0.00310189       0.12527246       0.25149297       0.11389829       0.04893809       0.05583439       0.02928182      -0.02826016       0.17072002      -0.01709538       0.13675889       0.52257775      -0.02548751      -0.17959660      -0.25745009      -0.07840637      -0.31522619      -0.38551430      -0.14120133       0.05070619      -0.16363516       0.04805930      -0.03579436      -0.11822430      -0.00975910       0.21206524       0.42914480       0.17564945      -0.19621809      -0.13396397      -0.16599980       0.14369773      -0.44155360       0.07967560      -0.47953323       0.21451043      -0.34973000       0.13336138       0.09258813       0.08420716       0.43350766      -0.00071605      -0.55434701      -0.38981965      -0.00285274       0.58647844       0.03623783      -0.02438449      -0.02272585      -0.00854635      -0.01311103       0.02841927       0.00056066      -0.00061764       0.00125563      -0.00397751      -0.00153235       0.00534702
9
Properties=species:S:1:pos:R:3:xtb2_normal_mode_displacements_0:R:3:xtb2_normal_mode_displacements_1:R:3:xtb2_normal_mode_displacements_2:R:3:xtb2_normal_mode_displacements_3:R:3:xtb2_normal_mode_displacements_4:R:3:xtb2_normal_mode_displacements_5:R:3:xtb2_normal_mode_displacements_6:R:3:xtb2_normal_mode_displacements_7:R:3:xtb2_normal_mode_displacements_8:R:3:xtb2_normal_mode_displacements_9:R:3:xtb2_normal_mode_displacements_10:R:3:xtb2_normal_mode_displacements_11:R:3:xtb2_normal_mode_displacements_12:R:3:xtb2_normal_mode_displacements_13:R:3:xtb2_normal_mode_displacements_14:R:3:xtb2_normal_mode_displacements_15:R:3:xtb2_normal_mode_displacements_16:R:3:xtb2_normal_mode_displacements_17:R:3:xtb2_normal_mode_displacements_18:R:3:xtb2_normal_mode_displacements_19:R:3:xtb2_normal_mode_displacements_20:R:3:xtb2_normal_mode_displacements_21:R:3:xtb2_normal_mode_displacements_22:R:3:xtb2_normal_mode_displacements_23:R:3:xtb2_normal_mode_displacements_24:R:3:xtb2_normal_mode_displacements_25:R:3:xtb2_normal_mode_displacements_26:R:3 propene=T reference=T _ConfigSet_loc=" / 0 / 0" xtb2_normal_mode_frequencies="-0.0019461934127446617 -0.0012160035104524494 -9.93123452020089e-06 -1.3014229096056314e-06 2.01829311176581e-05 0.001182055215837519 0.020396585011163454 0.052646472270038644 0.0720661965517159 0.1107921441650487 0.11576844989559419 0.12116217101615684 0.12587386431539677 0.1301292403266887 0.14503383082407395 0.16000746051012865 0.17305063547571045 0.17607711388641958 0.183235233322014 0.184200200995007 0.21403806997450184 0.37170880543951323 0.3735009117214228 0.376824539972782 0.37858381524906215 0.3840148551557691 0.3873825460436433" pbc="F F F"
C        0.00289737       0.01242612       1.67004061      -0.00018484      -0.00006232      -0.14700365      -0.09212380      -0.03163889       0.00081388       0.00050246       0.00109785       0.33605481       0.30146046      -0.14226065       0.00001578       0.14025167       0.30087247      -0.00119299       0.00023600       0.00006442       0.10304089       0.00000042      -0.00000132      -0.09430485      -0.09701738       0.17667746      -0.00000038      -0.00000087      -0.00000076      -0.13912814       0.00000008       0.00000090       0.07919680       0.02104941       0.02966821       0.00000061      -0.03805961      -0.10937999       0.00000192      -0.00000012      -0.00000060       0.00351711      -0.00000039      -0.00000203      -0.13318641       0.01034389      -0.22655967       0.00000343       0.00440973       0.07800001      -0.00000119      -0.04011031       0.00509104      -0.00000001      -0.08035350      -0.03517561       0.00000065       0.00000006       0.00000011      -0.01181682       0.00207009       0.00179519      -0.00000008      -0.52029516      -0.07716670       0.00000223      -0.00000008      -0.00000001       0.00192081       0.00093338       0.00529737      -0.00000003      -0.01922576       0.02908937      -0.00000034       0.03965149      -0.06032606       0.00000069      -0.00279413      -0.00354144       0.00000005       0.00684677      -0.01257639       0.00000013
C        1.32217515       0.00159711       3.20479911      -0.00018444       0.00049407       0.16225851      -0.09229575       0.24032147       0.00002729       0.00050246       0.00109289       0.33530478       0.30146107      -0.14226385       0.00001538       0.14024844       0.30695895      -0.00119132       0.00023668      -0.00065616       0.19773506       0.00000082      -0.00000001       0.06913106      -0.10338774      -0.13436733       0.00000243      -0.00000062      -0.00000078       0.05006226      -0.00000048      -0.00000321      -0.15622235       0.02603792       0.10545320      -0.00000324      -0.11657114      -0.05848917       0.00000053      -0.00000070       0.00000034       0.03113218      -0.00000031      -0.00000060      -0.03415752      -0.00174871       0.09787693      -0.00000182       0.07372617      -0.06808843       0.00000095      -0.00961938      -0.00573576       0.00000012      -0.03655727       0.01011078      -0.00000011       0.00000001      -0.00000009      -0.00100521       0.02851820      -0.00007918      -0.00000005       0.46282307       0.00614317      -0.00000123       0.00000003       0.00000000       0.00022002      -0.00109131       0.00058150       0.00000000       0.00036708      -0.00042689       0.00000001      -0.00315517       0.01095426      -0.00000016       0.06134740      -0.02404248       0.00000021      -0.01797284      -0.09123604       0.00000138
H       -0.54184674       0.94915465       1.44650454      -0.00057720      -0.00029473      -0.52278016      -0.28517891      -0.14391174       0.00268754       0.00050597       0.00109994       0.34095234       0.30146798      -0.14225445       0.00001672       0.13592192       0.29835260      -0.00116794       0.00074992       0.00036575       0.30808101       0.00000137      -0.00000242      -0.24110632      -0.06379115       0.18204692      -0.00000890       0.00000057       0.00000595       0.37562491       0.00000247      -0.00000208      -0.29747072      -0.28749309      -0.14771481       0.00000010      -0.24737010      -0.23404283       0.00000714      -0.00000213      -0.00000894      -0.62138682       0.00000082       0.00000566       0.47327106      -0.18966448      -0.32053687       0.00000252      -0.83076652      -0.41407775       0.00000666      -0.05110253      -0.00069595      -0.00000027       0.09153297       0.06641310      -0.00000098      -0.00000014       0.00000042       0.03009094      -0.02893096      -0.01630472      -0.00000006       0.09341611       0.32206185      -0.00000491      -0.00000001       0.00000001      -0.00098587       0.03079063      -0.05370249       0.00000054       0.22840772      -0.39451688       0.00000451      -0.44272279       0.75396366      -0.00000866      -0.01545228       0.03002717      -0.00000033      -0.05873820       0.10694769      -0.00000121
H        1.89383749       0.91985013       2.23919103      -0.00056703       0.00073225       0.05450902      -0.28056468       0.35838396       0.00119407       0.00050595       0.00109076       0.33947353       0.30145500      -0.14225979       0.00001596       0.13604797       0.30959084      -0.00116561       0.00073719      -0.00096564       0.47690998       0.00000128      -0.00000084       0.03668975       0.23220889      -0.34684761      -0.00000078       0.00000504       0.00000419       0.59610778      -0.00000412       0.00001505       0.83068971       0.52058993      -0.22168509       0.00000934      -0.31916403       0.06610723      -0.00000275      -0.00000050       0.00000307       0.21615231       0.00000030       0.00000279       0.20483697       0.31488038      -0.13019483       0.00000036      -0.04121456       0.02269696       0.00000009       0.28728469      -0.17396768       0.00000185       0.54988296      -0.33291287       0.00000335      -0.00000080       0.00000049       0.00539027      -0.09119498       0.06857005      -0.00000064      -0.08357487       0.36277264      -0.00000453       0.00000000      -0.00000001      -0.00243314      -0.00149107      -0.00250474      -0.00000001       0.01480606       0.02224586      -0.00000033      -0.05262717      -0.07570769       0.00000120      -0.24292805      -0.44209991       0.00000693       0.46647478       0.72342613      -0.00001153
C       -0.85490288      -1.20833894      -4.52891641       0.00032843      -0.00041438      -0.02071977       0.16106191      -0.20620780      -0.00070711       0.00049781       0.00110099       0.33041712       0.30145177      -0.14225113       0.00001502       0.14592482       0.29696487      -0.00122747      -0.00043924       0.00052502      -0.27943326      -0.00000117       0.00000102       0.00809838       0.15731822       0.01686223      -0.00000178       0.00000104       0.00000107       0.01404126      -0.00000038       0.00000047      -0.01146581       0.00690840      -0.08751194       0.00000088       0.20297140       0.10921681      -0.00000283       0.00000136       0.00000140       0.07089068       0.00000070       0.00000192       0.12458419      -0.03531808       0.16738018      -0.00000206      -0.02309628       0.03310871      -0.00000025      -0.06499949      -0.09294416       0.00000141       0.06783537       0.05274920      -0.00000105      -0.00000068      -0.00000080      -0.06645431       0.03845747      -0.05414837       0.00000008       0.05593032       0.03714399      -0.00000045      -0.00000078       0.00000075       0.08740008       0.06167647      -0.00148734       0.00000143       0.03558923      -0.05412236       0.00000017       0.02400263      -0.02976827       0.00000020       0.00088645      -0.00177144       0.00000002       0.00227723      -0.00180065       0.00000002
H        1.88338870      -0.90962976      -0.00422353       0.00020082       0.00073673       0.53811572       0.09703735       0.35719953      -0.00182844       0.00049894       0.00109065       0.33046286       0.30146477      -0.14226034       0.00001445       0.14447025       0.30956370      -0.00121576      -0.00026638      -0.00096933      -0.00090119       0.00000059       0.00000194       0.23307647      -0.43632557      -0.34156017       0.00001489      -0.00000609      -0.00001150      -0.50700554       0.00000705       0.00000920       0.41959693      -0.47236960      -0.22168739       0.00001006      -0.01626530       0.01577872       0.00000648      -0.00000231      -0.00000855      -0.58216990       0.00000015       0.00000447       0.33735421      -0.36656492      -0.15534445       0.00000434       0.28381900       0.07238065      -0.00000267       0.30953970       0.17558235      -0.00000331       0.50221862       0.31278762      -0.00000532      -0.00000051      -0.00000025       0.00785570      -0.09464722      -0.07243036       0.00000109      -0.13273208      -0.38242244       0.00000535       0.00000005      -0.00000006       0.00115822      -0.00088359      -0.00031925       0.00000002      -0.00615041       0.00178240      -0.00000004       0.05555510      -0.08145464       0.00000104      -0.43687674       0.74057729      -0.00000962      -0.27468565       0.39782529      -0.00000513
H       -0.23837025      -2.11331148      -2.18801089       0.00070593      -0.00015543       0.36305873       0.34619601      -0.07958179      -0.00255800       0.00049435       0.00109861       0.32599045       0.30143826      -0.14225807       0.00001411       0.15005919       0.29979053      -0.00125224      -0.00093261       0.00018720      -0.46600924      -0.00000689      -0.00000385      -0.46925614       0.44746140       0.21413364      -0.00000775       0.00000232       0.00000233       0.20154231       0.00000334       0.00000303       0.04307107      -0.34761455      -0.31773411       0.00000426      -0.26677602      -0.19412992       0.00000299      -0.00000146      -0.00000095      -0.11340080       0.00000100       0.00000126      -0.22354306       0.45836507       0.47221295      -0.00000522       0.00391538       0.04282083      -0.00000048       0.39725168       0.25599656      -0.00000634      -0.16645193      -0.10825259       0.00000369       0.00000621       0.00000551       0.74196506       0.35108926       0.21592322      -0.00000443      -0.12548377      -0.08390090       0.00000140       0.00000081      -0.00000118       0.04397779       0.01821361       0.00991341       0.00000069      -0.50889552       0.72263145      -0.00000125      -0.26399890       0.37243573      -0.00000055      -0.01413043       0.02252081      -0.00000005      -0.01965513       0.03332267      -0.00000006
H       -1.18147480      -0.15404628      -2.43535194       0.20882005      -0.23428890      -0.17014915       0.16311940      -0.33752247      -0.00034284       0.00031140       0.00529291       0.33049042       0.30144464      -0.14224112       0.00001851       0.14597954       0.29401296      -0.00122602       0.06609852       0.22902164      -0.33144970      -0.42846504       0.19563930       0.32291416       0.16695705      -0.20648541      -0.00310216      -0.12526894      -0.25148834       0.11390379      -0.04893748      -0.05583768       0.02928304      -0.02825802       0.17072241       0.01709254       0.13675795       0.52257700       0.02547820       0.17959664       0.25745183      -0.07841264       0.31522388       0.38550855      -0.14121190       0.05070072      -0.16363940      -0.04805605      -0.03579474      -0.11822441       0.00976134       0.21206361       0.42914227      -0.17565940      -0.19621613      -0.13395962       0.16600512      -0.14369518       0.44155666       0.07967050      -0.47952786       0.21451575       0.34973461       0.13336122       0.09258862      -0.08421098      -0.43349874       0.00070846      -0.55431358      -0.38984771      -0.00286100      -0.58649641       0.03623756      -0.02438416       0.02272482      -0.00854844      -0.01311136      -0.02842101       0.00056053      -0.00061765      -0.00125577      -0.00397790      -0.00153243      -0.00534727
H       -1.80635163      -2.29642017      -0.67706256      -0.20815514       0.23292093      -0.17014922       0.16417573      -0.34042301      -0.00033685       0.00068411      -0.00308609       0.33049047       0.30144516      -0.14224256       0.00001189       0.14597911       0.29396412      -0.00122987      -0.06699152      -0.22726670      -0.33144542       0.42846782      -0.19563030       0.32291032       0.16695760      -0.20648941       0.00310189       0.12527246       0.25149297       0.11389829       0.04893809       0.05583439       0.02928182      -0.02826016       0.17072002      -0.01709538       0.13675889       0.52257775      -0.02548751      -0.17959660      -0.25745009      -0.07840637      -0.31522619      -0.38551430      -0.14120133       0.05070619      -0.16363516       0.04805930      -0.03579436      -0.11822430      -0.00975910       0.21206524       0.42914480       0.17564945      -0.19621809      -0.13396397      -0.16599980       0.14369773      -0.44155360       0.07967560      -0.47953323       0.21451043      -0.34973000       0.13336138       0.09258813       0.08420716       0.43350766      -0.00071605      -0.55434701      -0.38981965      -0.00285274       0.58647844       0.03623783      -0.02438449      -0.02272585      -0.00854635      -0.01311103       0.02841927       0.00056066      -0.00061764       0.00125563      -0.00397751      -0.00153235       0.00534702
9
Properties=species:S:1:pos:R:3:xtb2_normal_mode_displacements_0:R:3:xtb2_normal_mode_displacements_1:R:3:xtb2_normal_mode_displacements_2:R:3:xtb2_normal_mode_displacements_3:R:3:xtb2_normal_mode_displacements_4:R:3:xtb2_normal_mode_displacements_5:R:3:xtb2_normal_mode_displacements_6:R:3:xtb2_normal_mode_displacements_7:R:3:xtb2_normal_mode_displacements_8:R:3:xtb2_normal_mode_displacements_9:R:3:xtb2_normal_mode_displacements_10:R:3:xtb2_normal_mode_displacements_11:R:3:xtb2_normal_mode_displacements_12:R:3:xtb2_normal_mode_displacements_13:R:3:xtb2_normal_mode_displacements_14:R:3:xtb2_normal_mode_displacements_15:R:3:xtb2_normal_mode_displacements_16:R:3:xtb2_normal_mode_displacements_17:R:3:xtb2_normal_mode_displacements_18:R:3:xtb2_normal_mode_displacements_19:R:3:xtb2_normal_mode_displacements_20:R:3:xtb2_normal_mode_displacements_21:R:3:xtb2_normal_mode_displacements_22:R:3:xtb2_normal_mode_displacements_23:R:3:xtb2_normal_mode_displacements_24:R:3:xtb2_normal_mode_displacements_25:R:3:xtb2_normal_mode_displacements_26:R:3 propene=T reference=T _ConfigSet_loc=" / 0 / 0" xtb2_normal_mode_frequencies="-0.0019461934127446617 -0.0012160035104524494 -9.93123452020089e-06 -1.3014229096056314e-06 2.01829311176581e-05 0.001182055215837519 0.020396585011163454 0.052646472270038644 0.0720661965517159 0.1107921441650487 0.11576844989559419 0.12116217101615684 0.12587386431539677 0.1301292403266887 0.14503383082407395 0.16000746051012865 0.17305063547571045 0.17607711388641958 0.183235233322014 0.184200200995007 0.21403806997450184 0.37170880543951323 0.3735009117214228 0.376824539972782 0.37858381524906215 0.3840148551557691 0.3873825460436433" pbc="F F F"
C        0.00260622       0.01234664       1.54291626      -0.00018484      -0.00006232      -0.14700365      -0.09212380      -0.03163889       0.00081388       0.00050246       0.00109785       0.33605481       0.30146046      -0.14226065       0.00001578       0.14025167       0.30087247      -0.00119299       0.00023600       0.00006442       0.10304089       0.00000042      -0.00000132      -0.09430485      -0.09701738       0.17667746      -0.00000038      -0.00000087      -0.00000076      -0.13912814       0.00000008       0.00000090       0.07919680       0.02104941       0.02966821       0.00000061      -0.03805961      -0.10937999       0.00000192      -0.00000012      -0.00000060       0.00351711      -0.00000039      -0.00000203      -0.13318641       0.01034389      -0.22655967       0.00000343       0.00440973       0.07800001      -0.00000119      -0.04011031       0.00509104      -0.00000001      -0.08035350      -0.03517561       0.00000065       0.00000006       0.00000011      -0.01181682       0.00207009       0.00179519      -0.00000008      -0.52029516      -0.07716670       0.00000223      -0.00000008      -0.00000001       0.00192081       0.00093338       0.00529737      -0.00000003      -0.01922576       0.02908937      -0.00000034       0.03965149      -0.06032606       0.00000069      -0.00279413      -0.00354144       0.00000005       0.00684677      -0.01257639       0.00000013
C        1.32188315       0.00240663       2.96084799      -0.00018444       0.00049407       0.16225851      -0.09229575       0.24032147       0.00002729       0.00050246       0.00109289       0.33530478       0.30146107      -0.14226385       0.00001538       0.14024844       0.30695895      -0.00119132       0.00023668      -0.00065616       0.19773506       0.00000082      -0.00000001       0.06913106      -0.10338774      -0.13436733       0.00000243      -0.00000062      -0.00000078       0.05006226      -0.00000048      -0.00000321      -0.15622235       0.02603792       0.10545320      -0.00000324      -0.11657114      -0.05848917       0.00000053      -0.00000070       0.00000034       0.03113218      -0.00000031      -0.00000060      -0.03415752      -0.00174871       0.09787693      -0.00000182       0.07372617      -0.06808843       0.00000095      -0.00961938      -0.00573576       0.00000012      -0.03655727       0.01011078      -0.00000011       0.00000001      -0.00000009      -0.00100521       0.02851820      -0.00007918      -0.00000005       0.46282307       0.00614317      -0.00000123       0.00000003       0.00000000       0.00022002      -0.00109131       0.00058150       0.00000000       0.00036708      -0.00042689       0.00000001      -0.00315517       0.01095426      -0.00000016       0.06134740      -0.02404248       0.00000021      -0.01797284      -0.09123604       0.00000138
H       -0.54211477       0.94902393       1.33639505      -0.00057720      -0.00029473      -0.52278016      -0.28517891      -0.14391174       0.00268754       0.00050597       0.00109994       0.34095234       0.30146798      -0.14225445       0.00001672       0.13592192       0.29835260      -0.00116794       0.00074992       0.00036575       0.30808101       0.00000137      -0.00000242      -0.24110632      -0.06379115       0.18204692      -0.00000890       0.00000057       0.00000595       0.37562491       0.00000247      -0.00000208      -0.29747072      -0.28749309      -0.14771481       0.00000010      -0.24737010      -0.23404283       0.00000714      -0.00000213      -0.00000894      -0.62138682       0.00000082       0.00000566       0.47327106      -0.18966448      -0.32053687       0.00000252      -0.83076652      -0.41407775       0.00000666      -0.05110253      -0.00069595      -0.00000027       0.09153297       0.06641310      -0.00000098      -0.00000014       0.00000042       0.03009094      -0.02893096      -0.01630472      -0.00000006       0.09341611       0.32206185      -0.00000491      -0.00000001       0.00000001      -0.00098587       0.03079063      -0.05370249       0.00000054       0.22840772      -0.39451688       0.00000451      -0.44272279       0.75396366      -0.00000866      -0.01545228       0.03002717      -0.00000033      -0.05873820       0.10694769      -0.00000121
H        1.89357401       0.92019526       2.06874133      -0.00056703       0.00073225       0.05450902      -0.28056468       0.35838396       0.00119407       0.00050595       0.00109076       0.33947353       0.30145500      -0.14225979       0.00001596       0.13604797       0.30959084      -0.00116561       0.00073719      -0.00096564       0.47690998       0.00000128      -0.00000084       0.03668975       0.23220889      -0.34684761      -0.00000078       0.00000504       0.00000419       0.59610778      -0.00000412       0.00001505       0.83068971       0.52058993      -0.22168509       0.00000934      -0.31916403       0.06610723      -0.00000275      -0.00000050       0.00000307       0.21615231       0.00000030       0.00000279       0.20483697       0.31488038      -0.13019483       0.00000036      -0.04121456       0.02269696       0.00000009       0.28728469      -0.17396768       0.00000185       0.54988296      -0.33291287       0.00000335      -0.00000080       0.00000049       0.00539027      -0.09119498       0.06857005      -0.00000064      -0.08357487       0.36277264      -0.00000453       0.00000000      -0.00000001      -0.00243314      -0.00149107      -0.00250474      -0.00000001       0.01480606       0.02224586      -0.00000033      -0.05262717      -0.07570769       0.00000120      -0.24292805      -0.44209991       0.00000693       0.46647478       0.72342613      -0.00001153
C       -0.85436098      -1.20898667      -4.18417199       0.00032843      -0.00041438      -0.02071977       0.16106191      -0.20620780      -0.00070711       0.00049781       0.00110099       0.33041712       0.30145177      -0.14225113       0.00001502       0.14592482       0.29696487      -0.00122747      -0.00043924       0.00052502      -0.27943326      -0.00000117       0.00000102       0.00809838       0.15731822       0.01686223      -0.00000178       0.00000104       0.00000107       0.01404126      -0.00000038       0.00000047      -0.01146581       0.00690840      -0.08751194       0.00000088       0.20297140       0.10921681      -0.00000283       0.00000136       0.00000140       0.07089068       0.00000070       0.00000192       0.12458419      -0.03531808       0.16738018      -0.00000206      -0.02309628       0.03310871      -0.00000025      -0.06499949      -0.09294416       0.00000141       0.06783537       0.05274920      -0.00000105      -0.00000068      -0.00000080      -0.06645431       0.03845747      -0.05414837       0.00000008       0.05593032       0.03714399      -0.00000045      -0.00000078       0.00000075       0.08740008       0.06167647      -0.00148734       0.00000143       0.03558923      -0.05412236       0.00000017       0.02400263      -0.02976827       0.00000020       0.00088645      -0.00177144       0.00000002       0.00227723      -0.00180065       0.00000002
H        1.88348391      -0.90928332      -0.00390144       0.00020082       0.00073673       0.53811572       0.09703735       0.35719953      -0.00182844       0.00049894       0.00109065       0.33046286       0.30146477      -0.14226034       0.00001445       0.14447025       0.30956370      -0.00121576      -0.00026638      -0.00096933      -0.00090119       0.00000059       0.00000194       0.23307647      -0.43632557      -0.34156017       0.00001489      -0.00000609      -0.00001150      -0.50700554       0.00000705       0.00000920       0.41959693      -0.47236960      -0.22168739       0.00001006      -0.01626530       0.01577872       0.00000648      -0.00000231      -0.00000855      -0.58216990       0.00000015       0.00000447       0.33735421      -0.36656492      -0.15534445       0.00000434       0.28381900       0.07238065      -0.00000267       0.30953970       0.17558235      -0.00000331       0.50221862       0.31278762      -0.00000532      -0.00000051      -0.00000025       0.00785570      -0.09464722      -0.07243036       0.00000109      -0.13273208      -0.38242244       0.00000535       0.00000005      -0.00000006       0.00115822      -0.00088359      -0.00031925       0.00000002      -0.00615041       0.00178240      -0.00000004       0.05555510      -0.08145464       0.00000104      -0.43687674       0.74057729      -0.00000962      -0.27468565       0.39782529      -0.00000513
H       -0.23803693      -2.11337839      -2.02145716       0.00070593      -0.00015543       0.36305873       0.34619601      -0.07958179      -0.00255800       0.00049435       0.00109861       0.32599045       0.30143826      -0.14225807       0.00001411       0.15005919       0.29979053      -0.00125224      -0.00093261       0.00018720      -0.46600924      -0.00000689      -0.00000385      -0.46925614       0.44746140       0.21413364      -0.00000775       0.00000232       0.00000233       0.20154231       0.00000334       0.00000303       0.04307107      -0.34761455      -0.31773411       0.00000426      -0.26677602      -0.19412992       0.00000299      -0.00000146      -0.00000095      -0.11340080       0.00000100       0.00000126      -0.22354306       0.45836507       0.47221295      -0.00000522       0.00391538       0.04282083      -0.00000048       0.39725168       0.25599656      -0.00000634      -0.16645193      -0.10825259       0.00000369       0.00000621       0.00000551       0.74196506       0.35108926       0.21592322      -0.00000443      -0.12548377      -0.08390090       0.00000140       0.00000081      -0.00000118       0.04397779       0.01821361       0.00991341       0.00000069      -0.50889552       0.72263145      -0.00000125      -0.26399890       0.37243573      -0.00000055      -0.01413043       0.02252081      -0.00000005      -0.01965513       0.03332267      -0.00000006
H       -1.20509869      -0.23589961      -2.31689038       0.20882005      -0.23428890      -0.17014915       0.16311940      -0.33752247      -0.00034284       0.00031140       0.00529291       0.33049042       0.30144464      -0.14224112       0.00001851       0.14597954       0.29401296      -0.00122602       0.06609852       0.22902164      -0.33144970      -0.42846504       0.19563930       0.32291416       0.16695705      -0.20648541      -0.00310216      -0.12526894      -0.25148834       0.11390379      -0.04893748      -0.05583768       0.02928304      -0.02825802       0.17072241       0.01709254       0.13675795       0.52257700       0.02547820       0.17959664       0.25745183      -0.07841264       0.31522388       0.38550855      -0.14121190       0.05070072      -0.16363940      -0.04805605      -0.03579474      -0.11822441       0.00976134       0.21206361       0.42914227      -0.17565940      -0.19621613      -0.13395962       0.16600512      -0.14369518       0.44155666       0.07967050      -0.47952786       0.21451575       0.34973461       0.13336122       0.09258862      -0.08421098      -0.43349874       0.00070846      -0.55431358      -0.38984771      -0.00286100      -0.58649641       0.03623756      -0.02438416       0.02272482      -0.00854844      -0.01311136      -0.02842101       0.00056053      -0.00061765      -0.00125577      -0.00397790      -0.00153243      -0.00534727
H       -1.78240857      -2.21519406      -0.55860253      -0.20815514       0.23292093      -0.17014922       0.16417573      -0.34042301      -0.00033685       0.00068411      -0.00308609       0.33049047       0.30144516      -0.14224256       0.00001189       0.14597911       0.29396412      -0.00122987      -0.06699152      -0.22726670      -0.33144542       0.42846782      -0.19563030       0.32291032       0.16695760      -0.20648941       0.00310189       0.12527246       0.25149297       0.11389829       0.04893809       0.05583439       0.02928182      -0.02826016       0.17072002      -0.01709538       0.13675889       0.52257775      -0.02548751      -0.17959660      -0.25745009      -0.07840637      -0.31522619      -0.38551430      -0.14120133       0.05070619      -0.16363516       0.04805930      -0.03579436      -0.11822430      -0.00975910       0.21206524       0.42914480       0.17564945      -0.19621809      -0.13396397      -0.16599980       0.14369773      -0.44155360       0.07967560      -0.47953323       0.21451043      -0.34973000       0.13336138       0.09258813       0.08420716       0.43350766      -0.00071605      -0.55434701      -0.38981965      -0.00285274       0.58647844       0.03623783      -0.02438449      -0.02272585      -0.00854635      -0.01311103       0.02841927       0.00056066      -0.00061764       0.00125563      -0.00397751      -0.00153235       0.00534702
9
Properties=species:S:1:pos:R:3:xtb2_normal_mode_displacements_0:R:3:xtb2_normal_mode_displacements_1:R:3:xtb2_normal_mode_displacements_2:R:3:xtb2_normal_mode_displacements_3:R:3:xtb2_normal_mode_displacements_4:R:3:xtb2_normal_mode_displacements_5:R:3:xtb2_normal_mode_displacements_6:R:3:xtb2_normal_mode_displacements_7:R:3:xtb2_normal_mode_displacements_8:R:3:xtb2_normal_mode_displacements_9:R:3:xtb2_normal_mode_displacements_10:R:3:xtb2_normal_mode_displacements_11:R:3:xtb2_normal_mode_displacements_12:R:3:xtb2_normal_mode_displacements_13:R:3:xtb2_normal_mode_displacements_14:R:3:xtb2_normal_mode_displacements_15:R:3:xtb2_normal_mode_displacements_16:R:3:xtb2_normal_mode_displacements_17:R:3:xtb2_normal_mode_displacements_18:R:3:xtb2_normal_mode_displacements_19:R:3:xtb2_normal_mode_displacements_20:R:3:xtb2_normal_mode_displacements_21:R:3:xtb2_normal_mode_displacements_22:R:3:xtb2_normal_mode_displacements_23:R:3:xtb2_normal_mode_displacements_24:R:3:xtb2_normal_mode_displacements_25:R:3:xtb2_normal_mode_displacements_26:R:3 propene=T reference=T _ConfigSet_loc=" / 0 / 0" xtb2_normal_mode_frequencies="-0.0019461934127446617 -0.0012160035104524494 -9.93123452020089e-06 -1.3014229096056314e-06 2.01829311176581e-05 0.001182055215837519 0.020396585011163454 0.052646472270038644 0.0720661965517159 0.1107921441650487 0.11576844989559419 0.12116217101615684 0.12587386431539677 0.1301292403266887 0.14503383082407395 0.16000746051012865 0.17305063547571045 0.17607711388641958 0.183235233322014 0.184200200995007 0.21403806997450184 0.37170880543951323 0.3735009117214228 0.376824539972782 0.37858381524906215 0.3840148551557691 0.3873825460436433" pbc="F F F"
C        0.00177706       0.01212031       1.18089674      -0.00018484      -0.00006232      -0.14700365      -0.09212380      -0.03163889       0.00081388       0.00050246       0.00109785       0.33605481       0.30146046      -0.14226065       0.00001578       0.14025167       0.30087247      -0.00119299       0.00023600       0.00006442       0.10304089       0.00000042      -0.00000132      -0.09430485      -0.09701738       0.17667746      -0.00000038      -0.00000087      -0.00000076      -0.13912814       0.00000008       0.00000090       0.07919680       0.02104941       0.02966821       0.00000061      -0.03805961      -0.10937999       0.00000192      -0.00000012      -0.00000060       0.00351711      -0.00000039      -0.00000203      -0.13318641       0.01034389      -0.22655967       0.00000343       0.00440973       0.07800001      -0.00000119      -0.04011031       0.00509104      -0.00000001      -0.08035350      -0.03517561       0.00000065       0.00000006       0.00000011      -0.01181682       0.00207009       0.00179519      -0.00000008      -0.52029516      -0.07716670       0.00000223      -0.00000008      -0.00000001       0.00192081       0.00093338       0.00529737      -0.00000003      -0.01922576       0.02908937      -0.00000034       0.03965149      -0.06032606       0.00000069      -0.00279413      -0.00354144       0.00000005       0.00684677      -0.01257639       0.00000013
C        1.32105161       0.00471195       2.26613396      -0.00018444       0.00049407       0.16225851      -0.09229575       0.24032147       0.00002729       0.00050246       0.00109289       0.33530478       0.30146107      -0.14226385       0.00001538       0.14024844       0.30695895      -0.00119132       0.00023668      -0.00065616       0.19773506       0.00000082      -0.00000001       0.06913106      -0.10338774      -0.13436733       0.00000243      -0.00000062      -0.00000078       0.05006226      -0.00000048      -0.00000321      -0.15622235       0.02603792       0.10545320      -0.00000324      -0.11657114      -0.05848917       0.00000053      -0.00000070       0.00000034       0.03113218      -0.00000031      -0.00000060      -0.03415752      -0.00174871       0.09787693      -0.00000182       0.07372617      -0.06808843       0.00000095      -0.00961938      -0.00573576       0.00000012      -0.03655727       0.01011078      -0.00000011       0.00000001      -0.00000009      -0.00100521       0.02851820      -0.00007918      -0.00000005       0.46282307       0.00614317      -0.00000123       0.00000003       0.00000000       0.00022002      -0.00109131       0.00058150       0.00000000       0.00036708      -0.00042689       0.00000001      -0.00315517       0.01095426      -0.00000016       0.06134740      -0.02404248       0.00000021      -0.01797284      -0.09123604       0.00000138
H       -0.54287804       0.94865166       1.02282975      -0.00057720      -0.00029473      -0.52278016      -0.28517891      -0.14391174       0.00268754       0.00050597       0.00109994       0.34095234       0.30146798      -0.14225445       0.00001672       0.13592192       0.29835260      -0.00116794       0.00074992       0.00036575       0.30808101       0.00000137      -0.00000242      -0.24110632      -0.06379115       0.18204692      -0.00000890       0.00000057       0.00000595       0.37562491       0.00000247      -0.00000208      -0.29747072      -0.28749309      -0.14771481       0.00000010      -0.24737010      -0.23404283       0.00000714      -0.00000213      -0.00000894      -0.62138682       0.00000082       0.00000566       0.47327106      -0.18966448      -0.32053687       0.00000252      -0.83076652      -0.41407775       0.00000666      -0.05110253      -0.00069595      -0.00000027       0.09153297       0.06641310      -0.00000098      -0.00000014       0.00000042       0.03009094      -0.02893096      -0.01630472      -0.00000006       0.09341611       0.32206185      -0.00000491      -0.00000001       0.00000001      -0.00098587       0.03079063      -0.05370249       0.00000054       0.22840772      -0.39451688       0.00000451      -0.44272279       0.75396366      -0.00000866      -0.01545228       0.03002717      -0.00000033      -0.05873820       0.10694769      -0.00000121
H        1.89282370       0.92117809       1.58334165      -0.00056703       0.00073225       0.05450902      -0.28056468       0.35838396       0.00119407       0.00050595       0.00109076       0.33947353       0.30145500      -0.14225979       0.00001596       0.13604797       0.30959084      -0.00116561       0.00073719      -0.00096564       0.47690998       0.00000128      -0.00000084       0.03668975       0.23220889      -0.34684761      -0.00000078       0.00000504       0.00000419       0.59610778      -0.00000412       0.00001505       0.83068971       0.52058993      -0.22168509       0.00000934      -0.31916403       0.06610723      -0.00000275      -0.00000050       0.00000307       0.21615231       0.00000030       0.00000279       0.20483697       0.31488038      -0.13019483       0.00000036      -0.04121456       0.02269696       0.00000009       0.28728469      -0.17396768       0.00000185       0.54988296      -0.33291287       0.00000335      -0.00000080       0.00000049       0.00539027      -0.09119498       0.06857005      -0.00000064      -0.08357487       0.36277264      -0.00000453       0.00000000      -0.00000001      -0.00243314      -0.00149107      -0.00250474      -0.00000001       0.01480606       0.02224586      -0.00000033      -0.05262717      -0.07570769       0.00000120      -0.24292805      -0.44209991       0.00000693       0.46647478       0.72342613      -0.00001153
C       -0.85281777      -1.21083125      -3.20242295       0.00032843      -0.00041438      -0.02071977       0.16106191      -0.20620780      -0.00070711       0.00049781       0.00110099       0.33041712       0.30145177      -0.14225113       0.00001502       0.14592482       0.29696487      -0.00122747      -0.00043924       0.00052502      -0.27943326      -0.00000117       0.00000102       0.00809838       0.15731822       0.01686223      -0.00000178       0.00000104       0.00000107       0.01404126      -0.00000038       0.00000047      -0.01146581       0.00690840      -0.08751194       0.00000088       0.20297140       0.10921681      -0.00000283       0.00000136       0.00000140       0.07089068       0.00000070       0.00000192       0.12458419      -0.03531808       0.16738018      -0.00000206      -0.02309628       0.03310871      -0.00000025      -0.06499949      -0.09294416       0.00000141       0.06783537       0.05274920      -0.00000105      -0.00000068      -0.00000080      -0.06645431       0.03845747      -0.05414837       0.00000008       0.05593032       0.03714399      -0.00000045      -0.00000078       0.00000075       0.08740008       0.06167647      -0.00148734       0.00000143       0.03558923      -0.05412236       0.00000017       0.02400263      -0.02976827       0.00000020       0.00088645      -0.00177144       0.00000002       0.00227723      -0.00180065       0.00000002
H        1.88375503      -0.90829673      -0.00298421       0.00020082       0.00073673       0.53811572       0.09703735       0.35719953      -0.00182844       0.00049894       0.00109065       0.33046286       0.30146477      -0.14226034       0.00001445       0.14447025       0.30956370      -0.00121576      -0.00026638      -0.00096933      -0.00090119       0.00000059       0.00000194       0.23307647      -0.43632557      -0.34156017       0.00001489      -0.00000609      -0.00001150      -0.50700554       0.00000705       0.00000920       0.41959693      -0.47236960      -0.22168739       0.00001006      -0.01626530       0.01577872       0.00000648      -0.00000231      -0.00000855      -0.58216990       0.00000015       0.00000447       0.33735421      -0.36656492      -0.15534445       0.00000434       0.28381900       0.07238065      -0.00000267       0.30953970       0.17558235      -0.00000331       0.50221862       0.31278762      -0.00000532      -0.00000051      -0.00000025       0.00785570      -0.09464722      -0.07243036       0.00000109      -0.13273208      -0.38242244       0.00000535       0.00000005      -0.00000006       0.00115822      -0.00088359      -0.00031925       0.00000002      -0.00615041       0.00178240      -0.00000004       0.05555510      -0.08145464       0.00000104      -0.43687674       0.74057729      -0.00000962      -0.27468565       0.39782529      -0.00000513
H       -0.23708772      -2.11356892      -1.54715227       0.00070593      -0.00015543       0.36305873       0.34619601      -0.07958179      -0.00255800       0.00049435       0.00109861       0.32599045       0.30143826      -0.14225807       0.00001411       0.15005919       0.29979053      -0.00125224      -0.00093261       0.00018720      -0.46600924      -0.00000689      -0.00000385      -0.46925614       0.44746140       0.21413364      -0.00000775       0.00000232       0.00000233       0.20154231       0.00000334       0.00000303       0.04307107      -0.34761455      -0.31773411       0.00000426      -0.26677602      -0.19412992       0.00000299      -0.00000146      -0.00000095      -0.11340080       0.00000100       0.00000126      -0.22354306       0.45836507       0.47221295      -0.00000522       0.00391538       0.04282083      -0.00000048       0.39725168       0.25599656      -0.00000634      -0.16645193      -0.10825259       0.00000369       0.00000621       0.00000551       0.74196506       0.35108926       0.21592322      -0.00000443      -0.12548377      -0.08390090       0.00000140       0.00000081      -0.00000118       0.04397779       0.01821361       0.00991341       0.00000069      -0.50889552       0.72263145      -0.00000125      -0.26399890       0.37243573      -0.00000055      -0.01413043       0.02252081      -0.00000005      -0.01965513       0.03332267      -0.00000006
H       -1.27237387      -0.46899817      -1.97954039       0.20882005      -0.23428890      -0.17014915       0.16311940      -0.33752247      -0.00034284       0.00031140       0.00529291       0.33049042       0.30144464      -0.14224112       0.00001851       0.14597954       0.29401296      -0.00122602       0.06609852       0.22902164      -0.33144970      -0.42846504       0.19563930       0.32291416       0.16695705      -0.20648541      -0.00310216      -0.12526894      -0.25148834       0.11390379      -0.04893748      -0.05583768       0.02928304      -0.02825802       0.17072241       0.01709254       0.13675795       0.52257700       0.02547820       0.17959664       0.25745183      -0.07841264       0.31522388       0.38550855      -0.14121190       0.05070072      -0.16363940      -0.04805605      -0.03579474      -0.11822441       0.00976134       0.21206361       0.42914227      -0.17565940      -0.19621613      -0.13395962       0.16600512      -0.14369518       0.44155666       0.07967050      -0.47952786       0.21451575       0.34973461       0.13336122       0.09258862      -0.08421098      -0.43349874       0.00070846      -0.55431358      -0.38984771      -0.00286100      -0.58649641       0.03623756      -0.02438416       0.02272482      -0.00854844      -0.01311136      -0.02842101       0.00056053      -0.00061765      -0.00125577      -0.00397790      -0.00153243      -0.00534727
H       -1.71422450      -1.98388168      -0.22125690      -0.20815514       0.23292093      -0.17014922       0.16417573      -0.34042301      -0.00033685       0.00068411      -0.00308609       0.33049047       0.30144516      -0.14224256       0.00001189       0.14597911       0.29396412      -0.00122987      -0.06699152      -0.22726670      -0.33144542       0.42846782      -0.19563030       0.32291032       0.16695760      -0.20648941       0.00310189       0.12527246       0.25149297       0.11389829       0.04893809       0.05583439       0.02928182      -0.02826016       0.17072002      -0.01709538       0.13675889       0.52257775      -0.02548751      -0.17959660      -0.25745009      -0.07840637      -0.31522619      -0.38551430      -0.14120133       0.05070619      -0.16363516       0.04805930      -0.03579436      -0.11822430      -0.00975910       0.21206524       0.42914480       0.17564945      -0.19621809      -0.13396397      -0.16599980       0.14369773      -0.44155360       0.07967560      -0.47953323       0.21451043      -0.34973000       0.13336138       0.09258813       0.08420716       0.43350766      -0.00071605      -0.55434701      -0.38981965      -0.00285274       0.58647844       0.03623783      -0.02438449      -0.02272585      -0.00854635      -0.01311103       0.02841927       0.00056066      -0.00061764       0.00125563      -0.00397751      -0.00153235       0.00534702
9
Properties=species:S:1:pos:R:3:xtb2_normal_mode_displacements_0:R:3:xtb2_normal_mode_displacements_1:R:3:xtb2_normal_mode_displacements_2:R:3:xtb2_normal_mode_displacements_3:R:3:xtb2_normal_mode_displacements_4:R:3:xtb2_normal_mode_displacements_5:R:3:xtb2_normal_mode_displacements_6:R:3:xtb2_normal_mode_displacements_7:R:3:xtb2_normal_mode_displacements_8:R:3:xtb2_normal_mode_displacements_9:R:3:xtb2_normal_mode_displacements_10:R:3:xtb2_normal_mode_displacements_11:R:3:xtb2_normal_mode_displacements_12:R:3:xtb2_normal_mode_displacements_13:R:3:xtb2_normal_mode_displacements_14:R:3:xtb2_normal_mode_displacements_15:R:3:xtb2_normal_mode_displacements_16:R:3:xtb2_normal_mode_displacements_17:R:3:xtb2_normal_mode_displacements_18:R:3:xtb2_normal_mode_displacements_19:R:3:xtb2_normal_mode_displacements_20:R:3:xtb2_normal_mode_displacements_21:R:3:xtb2_normal_mode_displacements_22:R:3:xtb2_normal_mode_displacements_23:R:3:xtb2_normal_mode_displacements_24:R:3:xtb2_normal_mode_displacements_25:R:3:xtb2_normal_mode_displacements_26:R:3 propene=T reference=T _ConfigSet_loc=" / 0 / 0" xtb2_normal_mode_frequencies="-0.0019461934127446617 -0.0012160035104524494 -9.93123452020089e-06 -1.3014229096056314e-06 2.01829311176581e-05 0.001182055215837519 0.020396585011163454 0.052646472270038644 0.0720661965517159 0.1107921441650487 0.11576844989559419 0.12116217101615684 0.12587386431539677 0.1301292403266887 0.14503383082407395 0.16000746051012865 0.17305063547571045 0.17607711388641958 0.183235233322014 0.184200200995007 0.21403806997450184 0.37170880543951323 0.3735009117214228 0.376824539972782 0.37858381524906215 0.3840148551557691 0.3873825460436433" pbc="F F F"
C        0.00053615       0.01178159       0.63909624      -0.00018484      -0.00006232      -0.14700365      -0.09212380      -0.03163889       0.00081388       0.00050246       0.00109785       0.33605481       0.30146046      -0.14226065       0.00001578       0.14025167       0.30087247      -0.00119299       0.00023600       0.00006442       0.10304089       0.00000042      -0.00000132      -0.09430485      -0.09701738       0.17667746      -0.00000038      -0.00000087      -0.00000076      -0.13912814       0.00000008       0.00000090       0.07919680       0.02104941       0.02966821       0.00000061      -0.03805961      -0.10937999       0.00000192      -0.00000012      -0.00000060       0.00351711      -0.00000039      -0.00000203      -0.13318641       0.01034389      -0.22655967       0.00000343       0.00440973       0.07800001      -0.00000119      -0.04011031       0.00509104      -0.00000001      -0.08035350      -0.03517561       0.00000065       0.00000006       0.00000011      -0.01181682       0.00207009       0.00179519      -0.00000008      -0.52029516      -0.07716670       0.00000223      -0.00000008      -0.00000001       0.00192081       0.00093338       0.00529737      -0.00000003      -0.01922576       0.02908937      -0.00000034       0.03965149      -0.06032606       0.00000069      -0.00279413      -0.00354144       0.00000005       0.00684677      -0.01257639       0.00000013
C        1.31980712       0.00816212       1.22642094      -0.00018444       0.00049407       0.16225851      -0.09229575       0.24032147       0.00002729       0.00050246       0.00109289       0.33530478       0.30146107      -0.14226385       0.00001538       0.14024844       0.30695895      -0.00119132       0.00023668      -0.00065616       0.19773506       0.00000082      -0.00000001       0.06913106      -0.10338774      -0.13436733       0.00000243      -0.00000062      -0.00000078       0.05006226      -0.00000048      -0.00000321      -0.15622235       0.02603792       0.10545320      -0.00000324      -0.11657114      -0.05848917       0.00000053      -0.00000070       0.00000034       0.03113218      -0.00000031      -0.00000060      -0.03415752      -0.00174871       0.09787693      -0.00000182       0.07372617      -0.06808843       0.00000095      -0.00961938      -0.00573576       0.00000012      -0.03655727       0.01011078      -0.00000011       0.00000001      -0.00000009      -0.00100521       0.02851820      -0.00007918      -0.00000005       0.46282307       0.00614317      -0.00000123       0.00000003       0.00000000       0.00022002      -0.00109131       0.00058150       0.00000000       0.00036708      -0.00042689       0.00000001      -0.00315517       0.01095426      -0.00000016       0.06134740      -0.02404248       0.00000021      -0.01797284      -0.09123604       0.00000138
H       -0.54402035       0.94809454       0.55354611      -0.00057720      -0.00029473      -0.52278016      -0.28517891      -0.14391174       0.00268754       0.00050597       0.00109994       0.34095234       0.30146798      -0.14225445       0.00001672       0.13592192       0.29835260      -0.00116794       0.00074992       0.00036575       0.30808101       0.00000137      -0.00000242      -0.24110632      -0.06379115       0.18204692      -0.00000890       0.00000057       0.00000595       0.37562491       0.00000247      -0.00000208      -0.29747072      -0.28749309      -0.14771481       0.00000010      -0.24737010      -0.23404283       0.00000714      -0.00000213      -0.00000894      -0.62138682       0.00000082       0.00000566       0.47327106      -0.18966448      -0.32053687       0.00000252      -0.83076652      -0.41407775       0.00000666      -0.05110253      -0.00069595      -0.00000027       0.09153297       0.06641310      -0.00000098      -0.00000014       0.00000042       0.03009094      -0.02893096      -0.01630472      -0.00000006       0.09341611       0.32206185      -0.00000491      -0.00000001       0.00000001      -0.00098587       0.03079063      -0.05370249       0.00000054       0.22840772      -0.39451688       0.00000451      -0.44272279       0.75396366      -0.00000866      -0.01545228       0.03002717      -0.00000033      -0.05873820       0.10694769      -0.00000121
H        1.89170078       0.92264899       0.85688970      -0.00056703       0.00073225       0.05450902      -0.28056468       0.35838396       0.00119407       0.00050595       0.00109076       0.33947353       0.30145500      -0.14225979       0.00001596       0.13604797       0.30959084      -0.00116561       0.00073719      -0.00096564       0.47690998       0.00000128      -0.00000084       0.03668975       0.23220889      -0.34684761      -0.00000078       0.00000504       0.00000419       0.59610778      -0.00000412       0.00001505       0.83068971       0.52058993      -0.22168509       0.00000934      -0.31916403       0.06610723      -0.00000275      -0.00000050       0.00000307       0.21615231       0.00000030       0.00000279       0.20483697       0.31488038      -0.13019483       0.00000036      -0.04121456       0.02269696       0.00000009       0.28728469      -0.17396768       0.00000185       0.54988296      -0.33291287       0.00000335      -0.00000080       0.00000049       0.00539027      -0.09119498       0.06857005      -0.00000064      -0.08357487       0.36277264      -0.00000453       0.00000000      -0.00000001      -0.00243314      -0.00149107      -0.00250474      -0.00000001       0.01480606       0.02224586      -0.00000033      -0.05262717      -0.07570769       0.00000120      -0.24292805      -0.44209991       0.00000693       0.46647478       0.72342613      -0.00001153
C       -0.85050820      -1.21359186      -1.73313167       0.00032843      -0.00041438      -0.02071977       0.16106191      -0.20620780      -0.00070711       0.00049781       0.00110099       0.33041712       0.30145177      -0.14225113       0.00001502       0.14592482       0.29696487      -0.00122747      -0.00043924       0.00052502      -0.27943326      -0.00000117       0.00000102       0.00809838       0.15731822       0.01686223      -0.00000178       0.00000104       0.00000107       0.01404126      -0.00000038       0.00000047      -0.01146581       0.00690840      -0.08751194       0.00000088       0.20297140       0.10921681      -0.00000283       0.00000136       0.00000140       0.07089068       0.00000070       0.00000192       0.12458419      -0.03531808       0.16738018      -0.00000206      -0.02309628       0.03310871      -0.00000025      -0.06499949      -0.09294416       0.00000141       0.06783537       0.05274920      -0.00000105      -0.00000068      -0.00000080      -0.06645431       0.03845747      -0.05414837       0.00000008       0.05593032       0.03714399      -0.00000045      -0.00000078       0.00000075       0.08740008       0.06167647      -0.00148734       0.00000143       0.03558923      -0.05412236       0.00000017       0.02400263      -0.02976827       0.00000020       0.00088645      -0.00177144       0.00000002       0.00227723      -0.00180065       0.00000002
H        1.88416079      -0.90682021      -0.00161147       0.00020082       0.00073673       0.53811572       0.09703735       0.35719953      -0.00182844       0.00049894       0.00109065       0.33046286       0.30146477      -0.14226034       0.00001445       0.14447025       0.30956370      -0.00121576      -0.00026638      -0.00096933      -0.00090119       0.00000059       0.00000194       0.23307647      -0.43632557      -0.34156017       0.00001489      -0.00000609      -0.00001150      -0.50700554       0.00000705       0.00000920       0.41959693      -0.47236960      -0.22168739       0.00001006      -0.01626530       0.01577872       0.00000648      -0.00000231      -0.00000855      -0.58216990       0.00000015       0.00000447       0.33735421      -0.36656492      -0.15534445       0.00000434       0.28381900       0.07238065      -0.00000267       0.30953970       0.17558235      -0.00000331       0.50221862       0.31278762      -0.00000532      -0.00000051      -0.00000025       0.00785570      -0.09464722      -0.07243036       0.00000109      -0.13273208      -0.38242244       0.00000535       0.00000005      -0.00000006       0.00115822      -0.00088359      -0.00031925       0.00000002      -0.00615041       0.00178240      -0.00000004       0.05555510      -0.08145464       0.00000104      -0.43687674       0.74057729      -0.00000962      -0.27468565       0.39782529      -0.00000513
H       -0.23566713      -2.11385407      -0.83730484       0.00070593      -0.00015543       0.36305873       0.34619601      -0.07958179      -0.00255800       0.00049435       0.00109861       0.32599045       0.30143826      -0.14225807       0.00001411       0.15005919       0.29979053      -0.00125224      -0.00093261       0.00018720      -0.46600924      -0.00000689      -0.00000385      -0.46925614       0.44746140       0.21413364      -0.00000775       0.00000232       0.00000233       0.20154231       0.00000334       0.00000303       0.04307107      -0.34761455      -0.31773411       0.00000426      -0.26677602      -0.19412992       0.00000299      -0.00000146      -0.00000095      -0.11340080       0.00000100       0.00000126      -0.22354306       0.45836507       0.47221295      -0.00000522       0.00391538       0.04282083      -0.00000048       0.39725168       0.25599656      -0.00000634      -0.16645193      -0.10825259       0.00000369       0.00000621       0.00000551       0.74196506       0.35108926       0.21592322      -0.00000443      -0.12548377      -0.08390090       0.00000140       0.00000081      -0.00000118       0.04397779       0.01821361       0.00991341       0.00000069      -0.50889552       0.72263145      -0.00000125      -0.26399890       0.37243573      -0.00000055      -0.01413043       0.02252081      -0.00000005      -0.01965513       0.03332267      -0.00000006
H       -1.37305827      -0.81785482      -1.47466045       0.20882005      -0.23428890      -0.17014915       0.16311940      -0.33752247      -0.00034284       0.00031140       0.00529291       0.33049042       0.30144464      -0.14224112       0.00001851       0.14597954       0.29401296      -0.00122602       0.06609852       0.22902164      -0.33144970      -0.42846504       0.19563930       0.32291416       0.16695705      -0.20648541      -0.00310216      -0.12526894      -0.25148834       0.11390379      -0.04893748      -0.05583768       0.02928304      -0.02825802       0.17072241       0.01709254       0.13675795       0.52257700       0.02547820       0.17959664       0.25745183      -0.07841264       0.31522388       0.38550855      -0.14121190       0.05070072      -0.16363940      -0.04805605      -0.03579474      -0.11822441       0.00976134       0.21206361       0.42914227      -0.17565940      -0.19621613      -0.13395962       0.16600512      -0.14369518       0.44155666       0.07967050      -0.47952786       0.21451575       0.34973461       0.13336122       0.09258862      -0.08421098      -0.43349874       0.00070846      -0.55431358      -0.38984771      -0.00286100      -0.58649641       0.03623756      -0.02438416       0.02272482      -0.00854844      -0.01311136      -0.02842101       0.00056053      -0.00061765      -0.00125577      -0.00397790      -0.00153243      -0.00534727
H       -1.61217983      -1.63769824       0.28361653      -0.20815514       0.23292093      -0.17014922       0.16417573      -0.34042301      -0.00033685       0.00068411      -0.00308609       0.33049047       0.30144516      -0.14224256       0.00001189       0.14597911       0.29396412      -0.00122987      -0.06699152      -0.22726670      -0.33144542       0.42846782      -0.19563030       0.32291032       0.16695760      -0.20648941       0.00310189       0.12527246       0.25149297       0.11389829       0.04893809       0.05583439       0.02928182      -0.02826016       0.17072002      -0.01709538       0.13675889       0.52257775      -0.02548751      -0.17959660      -0.25745009      -0.07840637      -0.31522619      -0.38551430      -0.14120133       0.05070619      -0.16363516       0.04805930      -0.03579436      -0.11822430      -0.00975910       0.21206524       0.42914480       0.17564945      -0.19621809      -0.13396397      -0.16599980       0.14369773      -0.44155360       0.07967560      -0.47953323       0.21451043      -0.34973000       0.13336138       0.09258813       0.08420716       0.43350766      -0.00071605      -0.55434701      -0.38981965      -0.00285274       0.58647844       0.03623783      -0.02438449      -0.02272585      -0.00854635      -0.01311103       0.02841927       0.00056066      -0.00061764       0.00125563      -0.00397751      -0.00153235       0.00534702
9
Properties=species:S:1:pos:R:3:xtb2_normal_mode_displacements_0:R:3:xtb2_normal_mode_displacements_1:R:3:xtb2_normal_mode_displacements_2:R:3:xtb2_normal_mode_displacements_3:R:3:xtb2_normal_mode_displacements_4:R:3:xtb2_normal_mode_displacements_5:R:3:xtb2_normal_mode_displacements_6:R:3:xtb2_normal_mode_displacements_7:R:3:xtb2_normal_mode_displacements_8:R:3:xtb2_normal_mode_displacements_9:R:3:xtb2_normal_mode_displacements_10:R:3:xtb2_normal_mode_displacements_11:R:3:xtb2_normal_mode_displacements_12:R:3:xtb2_normal_mode_displacements_13:R:3:xtb2_normal_mode_displacements_14:R:3:xtb2_normal_mode_displacements_15:R:3:xtb2_normal_mode_displacements_16:R:3:xtb2_normal_mode_displacements_17:R:3:xtb2_normal_mode_displacements_18:R:3:xtb2_normal_mode_displacements_19:R:3:xtb2_normal_mode_displacements_20:R:3:xtb2_normal_mode_displacements_21:R:3:xtb2_normal_mode_displacements_22:R:3:xtb2_normal_mode_displacements_23:R:3:xtb2_normal_mode_displacements_24:R:3:xtb2_normal_mode_displacements_25:R:3:xtb2_normal_mode_displacements_26:R:3 propene=T reference=T _ConfigSet_loc=" / 0 / 0" xtb2_normal_mode_frequencies="-0.0019461934127446617 -0.0012160035104524494 -9.93123452020089e-06 -1.3014229096056314e-06 2.01829311176581e-05 0.001182055215837519 0.020396585011163454 0.052646472270038644 0.0720661965517159 0.1107921441650487 0.11576844989559419 0.12116217101615684 0.12587386431539677 0.1301292403266887 0.14503383082407395 0.16000746051012865 0.17305063547571045 0.17607711388641958 0.183235233322014 0.184200200995007 0.21403806997450184 0.37170880543951323 0.3735009117214228 0.376824539972782 0.37858381524906215 0.3840148551557691 0.3873825460436433" pbc="F F F"
C       -0.00092761       0.01138203      -0.00000103      -0.00018484      -0.00006232      -0.14700365      -0.09212380      -0.03163889       0.00081388       0.00050246       0.00109785       0.33605481       0.30146046      -0.14226065       0.00001578       0.14025167       0.30087247      -0.00119299       0.00023600       0.00006442       0.10304089       0.00000042      -0.00000132      -0.09430485      -0.09701738       0.17667746      -0.00000038      -0.00000087      -0.00000076      -0.13912814       0.00000008       0.00000090       0.07919680       0.02104941       0.02966821       0.00000061      -0.03805961      -0.10937999       0.00000192      -0.00000012      -0.00000060       0.00351711      -0.00000039      -0.00000203      -0.13318641       0.01034389      -0.22655967       0.00000343       0.00440973       0.07800001      -0.00000119      -0.04011031       0.00509104      -0.00000001      -0.08035350      -0.03517561       0.00000065       0.00000006       0.00000011      -0.01181682       0.00207009       0.00179519      -0.00000008      -0.52029516      -0.07716670       0.00000223      -0.00000008      -0.00000001       0.00192081       0.00093338       0.00529737      -0.00000003      -0.01922576       0.02908937      -0.00000034       0.03965149      -0.06032606       0.00000069      -0.00279413      -0.00354144       0.00000005       0.00684677      -0.01257639       0.00000013
C        1.31833914       0.01223186      -0.00000419      -0.00018444       0.00049407       0.16225851      -0.09229575       0.24032147       0.00002729       0.00050246       0.00109289       0.33530478       0.30146107      -0.14226385       0.00001538       0.14024844       0.30695895      -0.00119132       0.00023668      -0.00065616       0.19773506       0.00000082      -0.00000001       0.06913106      -0.10338774      -0.13436733       0.00000243      -0.00000062      -0.00000078       0.05006226      -0.00000048      -0.00000321      -0.15622235       0.02603792       0.10545320      -0.00000324      -0.11657114      -0.05848917       0.00000053      -0.00000070       0.00000034       0.03113218      -0.00000031      -0.00000060      -0.03415752      -0.00174871       0.09787693      -0.00000182       0.07372617      -0.06808843       0.00000095      -0.00961938      -0.00573576       0.00000012      -0.03655727       0.01011078      -0.00000011       0.00000001      -0.00000009      -0.00100521       0.02851820      -0.00007918      -0.00000005       0.46282307       0.00614317      -0.00000123       0.00000003       0.00000000       0.00022002      -0.00109131       0.00058150       0.00000000       0.00036708      -0.00042689       0.00000001      -0.00315517       0.01095426      -0.00000016       0.06134740      -0.02404248       0.00000021      -0.01797284      -0.09123604       0.00000138
H       -0.54536780       0.94743736      -0.00001169      -0.00057720      -0.00029473      -0.52278016      -0.28517891      -0.14391174       0.00268754       0.00050597       0.00109994       0.34095234       0.30146798      -0.14225445       0.00001672       0.13592192       0.29835260      -0.00116794       0.00074992       0.00036575       0.30808101       0.00000137      -0.00000242      -0.24110632      -0.06379115       0.18204692      -0.00000890       0.00000057       0.00000595       0.37562491       0.00000247      -0.00000208      -0.29747072      -0.28749309      -0.14771481       0.00000010      -0.24737010      -0.23404283       0.00000714      -0.00000213      -0.00000894      -0.62138682       0.00000082       0.00000566       0.47327106      -0.18966448      -0.32053687       0.00000252      -0.83076652      -0.41407775       0.00000666      -0.05110253      -0.00069595      -0.00000027       0.09153297       0.06641310      -0.00000098      -0.00000014       0.00000042       0.03009094      -0.02893096      -0.01630472      -0.00000006       0.09341611       0.32206185      -0.00000491      -0.00000001       0.00000001      -0.00098587       0.03079063      -0.05370249       0.00000054       0.22840772      -0.39451688       0.00000451      -0.44272279       0.75396366      -0.00000866      -0.01545228       0.03002717      -0.00000033      -0.05873820       0.10694769      -0.00000121
H        1.89037620       0.92438405      -0.00001881      -0.00056703       0.00073225       0.05450902      -0.28056468       0.35838396       0.00119407       0.00050595       0.00109076       0.33947353       0.30145500      -0.14225979       0.00001596       0.13604797       0.30959084      -0.00116561       0.00073719      -0.00096564       0.47690998       0.00000128      -0.00000084       0.03668975       0.23220889      -0.34684761      -0.00000078       0.00000504       0.00000419       0.59610778      -0.00000412       0.00001505       0.83068971       0.52058993      -0.22168509       0.00000934      -0.31916403       0.06610723      -0.00000275      -0.00000050       0.00000307       0.21615231       0.00000030       0.00000279       0.20483697       0.31488038      -0.13019483       0.00000036      -0.04121456       0.02269696       0.00000009       0.28728469      -0.17396768       0.00000185       0.54988296      -0.33291287       0.00000335      -0.00000080       0.00000049       0.00539027      -0.09119498       0.06857005      -0.00000064      -0.08357487       0.36277264      -0.00000453       0.00000000      -0.00000001      -0.00243314      -0.00149107      -0.00250474      -0.00000001       0.01480606       0.02224586      -0.00000033      -0.05262717      -0.07570769       0.00000120      -0.24292805      -0.44209991       0.00000693       0.46647478       0.72342613      -0.00001153
C       -0.84778387      -1.21684823       0.00001556       0.00032843      -0.00041438      -0.02071977       0.16106191      -0.20620780      -0.00070711       0.00049781       0.00110099       0.33041712       0.30145177      -0.14225113       0.00001502       0.14592482       0.29696487      -0.00122747      -0.00043924       0.00052502      -0.27943326      -0.00000117       0.00000102       0.00809838       0.15731822       0.01686223      -0.00000178       0.00000104       0.00000107       0.01404126      -0.00000038       0.00000047      -0.01146581       0.00690840      -0.08751194       0.00000088       0.20297140       0.10921681      -0.00000283       0.00000136       0.00000140       0.07089068       0.00000070       0.00000192       0.12458419      -0.03531808       0.16738018      -0.00000206      -0.02309628       0.03310871      -0.00000025      -0.06499949      -0.09294416       0.00000141       0.06783537       0.05274920      -0.00000105      -0.00000068      -0.00000080      -0.06645431       0.03845747      -0.05414837       0.00000008       0.05593032       0.03714399      -0.00000045      -0.00000078       0.00000075       0.08740008       0.06167647      -0.00148734       0.00000143       0.03558923      -0.05412236       0.00000017       0.02400263      -0.02976827       0.00000020       0.00088645      -0.00177144       0.00000002       0.00227723      -0.00180065       0.00000002
H        1.88463942      -0.90507852       0.00000778       0.00020082       0.00073673       0.53811572       0.09703735       0.35719953      -0.00182844       0.00049894       0.00109065       0.33046286       0.30146477      -0.14226034       0.00001445       0.14447025       0.30956370      -0.00121576      -0.00026638      -0.00096933      -0.00090119       0.00000059       0.00000194       0.23307647      -0.43632557      -0.34156017       0.00001489      -0.00000609      -0.00001150      -0.50700554       0.00000705       0.00000920       0.41959693      -0.47236960      -0.22168739       0.00001006      -0.01626530       0.01577872       0.00000648      -0.00000231      -0.00000855      -0.58216990       0.00000015       0.00000447       0.33735421      -0.36656492      -0.15534445       0.00000434       0.28381900       0.07238065      -0.00000267       0.30953970       0.17558235      -0.00000331       0.50221862       0.31278762      -0.00000532      -0.00000051      -0.00000025       0.00785570      -0.09464722      -0.07243036       0.00000109      -0.13273208      -0.38242244       0.00000535       0.00000005      -0.00000006       0.00115822      -0.00088359      -0.00031925       0.00000002      -0.00615041       0.00178240      -0.00000004       0.05555510      -0.08145464       0.00000104      -0.43687674       0.74057729      -0.00000962      -0.27468565       0.39782529      -0.00000513
H       -0.23399142      -2.11419043       0.00001729       0.00070593      -0.00015543       0.36305873       0.34619601      -0.07958179      -0.00255800       0.00049435       0.00109861       0.32599045       0.30143826      -0.14225807       0.00001411       0.15005919       0.29979053      -0.00125224      -0.00093261       0.00018720      -0.46600924      -0.00000689      -0.00000385      -0.46925614       0.44746140       0.21413364      -0.00000775       0.00000232       0.00000233       0.20154231       0.00000334       0.00000303       0.04307107      -0.34761455      -0.31773411       0.00000426      -0.26677602      -0.19412992       0.00000299      -0.00000146      -0.00000095      -0.11340080       0.00000100       0.00000126      -0.22354306       0.45836507       0.47221295      -0.00000522       0.00391538       0.04282083      -0.00000048       0.39725168       0.25599656      -0.00000634      -0.16645193      -0.10825259       0.00000369       0.00000621       0.00000551       0.74196506       0.35108926       0.21592322      -0.00000443      -0.12548377      -0.08390090       0.00000140       0.00000081      -0.00000118       0.04397779       0.01821361       0.00991341       0.00000069      -0.50889552       0.72263145      -0.00000125      -0.26399890       0.37243573      -0.00000055      -0.01413043       0.02252081      -0.00000005      -0.01965513       0.03332267      -0.00000006
H       -1.49182363      -1.22935930      -0.87911395       0.20882005      -0.23428890      -0.17014915       0.16311940      -0.33752247      -0.00034284       0.00031140       0.00529291       0.33049042       0.30144464      -0.14224112       0.00001851       0.14597954       0.29401296      -0.00122602       0.06609852       0.22902164      -0.33144970      -0.42846504       0.19563930       0.32291416       0.16695705      -0.20648541      -0.00310216      -0.12526894      -0.25148834       0.11390379      -0.04893748      -0.05583768       0.02928304      -0.02825802       0.17072241       0.01709254       0.13675795       0.52257700       0.02547820       0.17959664       0.25745183      -0.07841264       0.31522388       0.38550855      -0.14121190       0.05070072      -0.16363940      -0.04805605      -0.03579474      -0.11822441       0.00976134       0.21206361       0.42914227      -0.17565940      -0.19621613      -0.13395962       0.16600512      -0.14369518       0.44155666       0.07967050      -0.47952786       0.21451575       0.34973461       0.13336122       0.09258862      -0.08421098      -0.43349874       0.00070846      -0.55431358      -0.38984771      -0.00286100      -0.58649641       0.03623756      -0.02438416       0.02272482      -0.00854844      -0.01311136      -0.02842101       0.00056053      -0.00061765      -0.00125577      -0.00397790      -0.00153243      -0.00534727
H       -1.49180994      -1.22934703       0.87915533      -0.20815514       0.23292093      -0.17014922       0.16417573      -0.34042301      -0.00033685       0.00068411      -0.00308609       0.33049047       0.30144516      -0.14224256       0.00001189       0.14597911       0.29396412      -0.00122987      -0.06699152      -0.22726670      -0.33144542       0.42846782      -0.19563030       0.32291032       0.16695760      -0.20648941       0.00310189       0.12527246       0.25149297       0.11389829       0.04893809       0.05583439       0.02928182      -0.02826016       0.17072002      -0.01709538       0.13675889       0.52257775      -0.02548751      -0.17959660      -0.25745009      -0.07840637      -0.31522619      -0.38551430      -0.14120133       0.05070619      -0.16363516       0.04805930      -0.03579436      -0.11822430      -0.00975910       0.21206524       0.42914480       0.17564945      -0.19621809      -0.13396397      -0.16599980       0.14369773      -0.44155360       0.07967560      -0.47953323       0.21451043      -0.34973000       0.13336138       0.09258813       0.08420716       0.43350766      -0.00071605      -0.55434701      -0.38981965      -0.00285274       0.58647844       0.03623783      -0.02438449      -0.02272585      -0.00854635      -0.01311103       0.02841927       0.00056066      -0.00061764       0.00125563      -0.00397751      -0.00153235       0.00534702
9
Properties=species:S:1:pos:R:3:xtb2_normal_mode_displacements_0:R:3:xtb2_normal_mode_displacements_1:R:3:xtb2_normal_mode_displacements_2:R:3:xtb2_normal_mode_displacements_3:R:3:xtb2_normal_mode_displacements_4:R:3:xtb2_normal_mode_displacements_5:R:3:xtb2_normal_mode_displacements_6:R:3:xtb2_normal_mode_displacements_7:R:3:xtb2_normal_mode_displacements_8:R:3:xtb2_normal_mode_displacements_9:R:3:xtb2_normal_mode_displacements_10:R:3:xtb2_normal_mode_displacements_11:R:3:xtb2_normal_mode_displacements_12:R:3:xtb2_normal_mode_displacements_13:R:3:xtb2_normal_mode_displacements_14:R:3:xtb2_normal_mode_displacements_15:R:3:xtb2_normal_mode_displacements_16:R:3:xtb2_normal_mode_displacements_17:R:3:xtb2_normal_mode_displacements_18:R:3:xtb2_normal_mode_displacements_19:R:3:xtb2_normal_mode_displacements_20:R:3:xtb2_normal_mode_displacements_21:R:3:xtb2_normal_mode_displacements_22:R:3:xtb2_normal_mode_displacements_23:R:3:xtb2_normal_mode_displacements_24:R:3:xtb2_normal_mode_displacements_25:R:3:xtb2_normal_mode_displacements_26:R:3 propene=T reference=T _ConfigSet_loc=" / 0 / 0" xtb2_normal_mode_frequencies="-0.0019461934127446617 -0.0012160035104524494 -9.93123452020089e-06 -1.3014229096056314e-06 2.01829311176581e-05 0.001182055215837519 0.020396585011163454 0.052646472270038644 0.0720661965517159 0.1107921441650487 0.11576844989559419 0.12116217101615684 0.12587386431539677 0.1301292403266887 0.14503383082407395 0.16000746051012865 0.17305063547571045 0.17607711388641958 0.183235233322014 0.184200200995007 0.21403806997450184 0.37170880543951323 0.3735009117214228 0.376824539972782 0.37858381524906215 0.3840148551557691 0.3873825460436433" pbc="F F F"
C       -0.00239137       0.01098247      -0.63909830      -0.00018484      -0.00006232      -0.14700365      -0.09212380      -0.03163889       0.00081388       0.00050246       0.00109785       0.33605481       0.30146046      -0.14226065       0.00001578       0.14025167       0.30087247      -0.00119299       0.00023600       0.00006442       0.10304089       0.00000042      -0.00000132      -0.09430485      -0.09701738       0.17667746      -0.00000038      -0.00000087      -0.00000076      -0.13912814       0.00000008       0.00000090       0.07919680       0.02104941       0.02966821       0.00000061      -0.03805961      -0.10937999       0.00000192      -0.00000012      -0.00000060       0.00351711      -0.00000039      -0.00000203      -0.13318641       0.01034389      -0.22655967       0.00000343       0.00440973       0.07800001      -0.00000119      -0.04011031       0.00509104      -0.00000001      -0.08035350      -0.03517561       0.00000065       0.00000006       0.00000011      -0.01181682       0.00207009       0.00179519      -0.00000008      -0.52029516      -0.07716670       0.00000223      -0.00000008      -0.00000001       0.00192081       0.00093338       0.00529737      -0.00000003      -0.01922576       0.02908937      -0.00000034       0.03965149      -0.06032606       0.00000069      -0.00279413      -0.00354144       0.00000005       0.00684677      -0.01257639       0.00000013
C        1.31687116       0.01630160      -1.22642932      -0.00018444       0.00049407       0.16225851      -0.09229575       0.24032147       0.00002729       0.00050246       0.00109289       0.33530478       0.30146107      -0.14226385       0.00001538       0.14024844       0.30695895      -0.00119132       0.00023668      -0.00065616       0.19773506       0.00000082      -0.00000001       0.06913106      -0.10338774      -0.13436733       0.00000243      -0.00000062      -0.00000078       0.05006226      -0.00000048      -0.00000321      -0.15622235       0.02603792       0.10545320      -0.00000324      -0.11657114      -0.05848917       0.00000053      -0.00000070       0.00000034       0.03113218      -0.00000031      -0.00000060      -0.03415752      -0.00174871       0.09787693      -0.00000182       0.07372617      -0.06808843       0.00000095      -0.00961938      -0.00573576       0.00000012      -0.03655727       0.01011078      -0.00000011       0.00000001      -0.00000009      -0.00100521       0.02851820      -0.00007918      -0.00000005       0.46282307       0.00614317      -0.00000123       0.00000003       0.00000000       0.00022002      -0.00109131       0.00058150       0.00000000       0.00036708      -0.00042689       0.00000001      -0.00315517       0.01095426      -0.00000016       0.06134740      -0.02404248       0.00000021      -0.01797284      -0.09123604       0.00000138
H       -0.54671525       0.94678018      -0.55356949      -0.00057720      -0.00029473      -0.52278016      -0.28517891      -0.14391174       0.00268754       0.00050597       0.00109994       0.34095234       0.30146798      -0.14225445       0.00001672       0.13592192       0.29835260      -0.00116794       0.00074992       0.00036575       0.30808101       0.00000137      -0.00000242      -0.24110632      -0.06379115       0.18204692      -0.00000890       0.00000057       0.00000595       0.37562491       0.00000247      -0.00000208      -0.29747072      -0.28749309      -0.14771481       0.00000010      -0.24737010      -0.23404283       0.00000714      -0.00000213      -0.00000894      -0.62138682       0.00000082       0.00000566       0.47327106      -0.18966448      -0.32053687       0.00000252      -0.83076652      -0.41407775       0.00000666      -0.05110253      -0.00069595      -0.00000027       0.09153297       0.06641310      -0.00000098      -0.00000014       0.00000042       0.03009094      -0.02893096      -0.01630472      -0.00000006       0.09341611       0.32206185      -0.00000491      -0.00000001       0.00000001      -0.00098587       0.03079063      -0.05370249       0.00000054       0.22840772      -0.39451688       0.00000451      -0.44272279       0.75396366      -0.00000866      -0.01545228       0.03002717      -0.00000033      -0.05873820       0.10694769      -0.00000121
H        1.88905162       0.92611911      -0.85692732      -0.00056703       0.00073225       0.05450902      -0.28056468       0.35838396       0.00119407       0.00050595       0.00109076       0.33947353       0.30145500      -0.14225979       0.00001596       0.13604797       0.30959084      -0.00116561       0.00073719      -0.00096564       0.47690998       0.00000128      -0.00000084       0.03668975       0.23220889      -0.34684761      -0.00000078       0.00000504       0.00000419       0.59610778      -0.00000412       0.00001505       0.83068971       0.52058993      -0.22168509       0.00000934      -0.31916403       0.06610723      -0.00000275      -0.00000050       0.00000307       0.21615231       0.00000030       0.00000279       0.20483697       0.31488038      -0.13019483       0.00000036      -0.04121456       0.02269696       0.00000009       0.28728469      -0.17396768       0.00000185       0.54988296      -0.33291287       0.00000335      -0.00000080       0.00000049       0.00539027      -0.09119498       0.06857005      -0.00000064      -0.08357487       0.36277264      -0.00000453       0.00000000      -0.00000001      -0.00243314      -0.00149107      -0.00250474      -0.00000001       0.01480606       0.02224586      -0.00000033      -0.05262717      -0.07570769       0.00000120      -0.24292805      -0.44209991       0.00000693       0.46647478       0.72342613      -0.00001153
C       -0.84505954      -1.22010460       1.73316279       0.00032843      -0.00041438      -0.02071977       0.16106191      -0.20620780      -0.00070711       0.00049781       0.00110099       0.33041712       0.30145177      -0.14225113       0.00001502       0.14592482       0.29696487      -0.00122747      -0.00043924       0.00052502      -0.27943326      -0.00000117       0.00000102       0.00809838       0.15731822       0.01686223      -0.00000178       0.00000104       0.00000107       0.01404126      -0.00000038       0.00000047      -0.01146581       0.00690840      -0.08751194       0.00000088       0.20297140       0.10921681      -0.00000283       0.00000136       0.00000140       0.07089068       0.00000070       0.00000192       0.12458419      -0.03531808       0.16738018      -0.00000206      -0.02309628       0.03310871      -0.00000025      -0.06499949      -0.09294416       0.00000141       0.06783537       0.05274920      -0.00000105      -0.00000068      -0.00000080      -0.06645431       0.03845747      -0.05414837       0.00000008       0.05593032       0.03714399      -0.00000045      -0.00000078       0.00000075       0.08740008       0.06167647      -0.00148734       0.00000143       0.03558923      -0.05412236       0.00000017       0.02400263      -0.02976827       0.00000020       0.00088645      -0.00177144       0.00000002       0.00227723      -0.00180065       0.00000002
H        1.88511805      -0.90333683       0.00162703       0.00020082       0.00073673       0.53811572       0.09703735       0.35719953      -0.00182844       0.00049894       0.00109065       0.33046286       0.30146477      -0.14226034       0.00001445       0.14447025       0.30956370      -0.00121576      -0.00026638      -0.00096933      -0.00090119       0.00000059       0.00000194       0.23307647      -0.43632557      -0.34156017       0.00001489      -0.00000609      -0.00001150      -0.50700554       0.00000705       0.00000920       0.41959693      -0.47236960      -0.22168739       0.00001006      -0.01626530       0.01577872       0.00000648      -0.00000231      -0.00000855      -0.58216990       0.00000015       0.00000447       0.33735421      -0.36656492      -0.15534445       0.00000434       0.28381900       0.07238065      -0.00000267       0.30953970       0.17558235      -0.00000331       0.50221862       0.31278762      -0.00000532      -0.00000051      -0.00000025       0.00785570      -0.09464722      -0.07243036       0.00000109      -0.13273208      -0.38242244       0.00000535       0.00000005      -0.00000006       0.00115822      -0.00088359      -0.00031925       0.00000002      -0.00615041       0.00178240      -0.00000004       0.05555510      -0.08145464       0.00000104      -0.43687674       0.74057729      -0.00000962      -0.27468565       0.39782529      -0.00000513
H       -0.23231571      -2.11452679       0.83733942       0.00070593      -0.00015543       0.36305873       0.34619601      -0.07958179      -0.00255800       0.00049435       0.00109861       0.32599045       0.30143826      -0.14225807       0.00001411       0.15005919       0.29979053      -0.00125224      -0.00093261       0.00018720      -0.46600924      -0.00000689      -0.00000385      -0.46925614       0.44746140       0.21413364      -0.00000775       0.00000232       0.00000233       0.20154231       0.00000334       0.00000303       0.04307107      -0.34761455      -0.31773411       0.00000426      -0.26677602      -0.19412992       0.00000299      -0.00000146      -0.00000095      -0.11340080       0.00000100       0.00000126      -0.22354306       0.45836507       0.47221295      -0.00000522       0.00391538       0.04282083      -0.00000048       0.39725168       0.25599656      -0.00000634      -0.16645193      -0.10825259       0.00000369       0.00000621       0.00000551       0.74196506       0.35108926       0.21592322      -0.00000443      -0.12548377      -0.08390090       0.00000140       0.00000081      -0.00000118       0.04397779       0.01821361       0.00991341       0.00000069      -0.50889552       0.72263145      -0.00000125      -0.26399890       0.37243573      -0.00000055      -0.01413043       0.02252081      -0.00000005      -0.01965513       0.03332267      -0.00000006
H       -1.61058899      -1.64086378      -0.28356745       0.20882005      -0.23428890      -0.17014915       0.16311940      -0.33752247      -0.00034284       0.00031140       0.00529291       0.33049042       0.30144464      -0.14224112       0.00001851       0.14597954       0.29401296      -0.00122602       0.06609852       0.22902164      -0.33144970      -0.42846504       0.19563930       0.32291416       0.16695705      -0.20648541      -0.00310216      -0.12526894      -0.25148834       0.11390379      -0.04893748      -0.05583768       0.02928304      -0.02825802       0.17072241       0.01709254       0.13675795       0.52257700       0.02547820       0.17959664       0.25745183      -0.07841264       0.31522388       0.38550855      -0.14121190       0.05070072      -0.16363940      -0.04805605      -0.03579474      -0.11822441       0.00976134       0.21206361       0.42914227      -0.17565940      -0.19621613      -0.13395962       0.16600512      -0.14369518       0.44155666       0.07967050      -0.47952786       0.21451575       0.34973461       0.13336122       0.09258862      -0.08421098      -0.43349874       0.00070846      -0.55431358      -0.38984771      -0.00286100      -0.58649641       0.03623756      -0.02438416       0.02272482      -0.00854844      -0.01311136      -0.02842101       0.00056053      -0.00061765      -0.00125577      -0.00397790      -0.00153243      -0.00534727
H       -1.37144005      -0.82099582       1.47469413      -0.20815514       0.23292093      -0.17014922       0.16417573      -0.34042301      -0.00033685       0.00068411      -0.00308609       0.33049047       0.30144516      -0.14224256       0.00001189       0.14597911       0.29396412      -0.00122987      -0.06699152      -0.22726670      -0.33144542       0.42846782      -0.19563030       0.32291032       0.16695760      -0.20648941       0.00310189       0.12527246       0.25149297       0.11389829       0.04893809       0.05583439       0.02928182      -0.02826016       0.17072002      -0.01709538       0.13675889       0.52257775      -0.02548751      -0.17959660      -0.25745009      -0.07840637      -0.31522619      -0.38551430      -0.14120133       0.05070619      -0.16363516       0.04805930      -0.03579436      -0.11822430      -0.00975910       0.21206524       0.42914480       0.17564945      -0.19621809      -0.13396397      -0.16599980       0.14369773      -0.44155360       0.07967560      -0.47953323       0.21451043      -0.34973000       0.13336138       0.09258813       0.08420716       0.43350766      -0.00071605      -0.55434701      -0.38981965      -0.00285274       0.58647844       0.03623783      -0.02438449      -0.02272585      -0.00854635      -0.01311103       0.02841927       0.00056066      -0.00061764       0.00125563      -0.00397751      -0.00153235       0.00534702
9
Properties=species:S:1:pos:R:3:xtb2_normal_mode_displacements_0:R:3:xtb2_normal_mode_displacements_1:R:3:xtb2_normal_mode_displacements_2:R:3:xtb2_normal_mode_displacements_3:R:3:xtb2_normal_mode_displacements_4:R:3:xtb2_normal_mode_displacements_5:R:3:xtb2_normal_mode_displacements_6:R:3:xtb2_normal_mode_displacements_7:R:3:xtb2_normal_mode_displacements_8:R:3:xtb2_normal_mode_displacements_9:R:3:xtb2_normal_mode_displacements_10:R:3:xtb2_normal_mode_displacements_11:R:3:xtb2_normal_mode_displacements_12:R:3:xtb2_normal_mode_displacements_13:R:3:xtb2_normal_mode_displacements_14:R:3:xtb2_normal_mode_displacements_15:R:3:xtb2_normal_mode_displacements_16:R:3:xtb2_normal_mode_displacements_17:R:3:xtb2_normal_mode_displacements_18:R:3:xtb2_normal_mode_displacements_19:R:3:xtb2_normal_mode_displacements_20:R:3:xtb2_normal_mode_displacements_21:R:3:xtb2_normal_mode_displacements_22:R:3:xtb2_normal_mode_displacements_23:R:3:xtb2_normal_mode_displacements_24:R:3:xtb2_normal_mode_displacements_25:R:3:xtb2_normal_mode_displacements_26:R:3 propene=T reference=T _ConfigSet_loc=" / 0 / 0" xtb2_normal_mode_frequencies="-0.0019461934127446617 -0.0012160035104524494 -9.93123452020089e-06 -1.3014229096056314e-06 2.01829311176581e-05 0.001182055215837519 0.020396585011163454 0.052646472270038644 0.0720661965517159 0.1107921441650487 0.11576844989559419 0.12116217101615684 0.12587386431539677 0.1301292403266887 0.14503383082407395 0.16000746051012865 0.17305063547571045 0.17607711388641958 0.183235233322014 0.184200200995007 0.21403806997450184 0.37170880543951323 0.3735009117214228 0.376824539972782 0.37858381524906215 0.3840148551557691 0.3873825460436433" pbc="F F F"
C       -0.00363228       0.01064375      -1.18089880      -0.00018484      -0.00006232      -0.14700365      -0.09212380      -0.03163889       0.00081388       0.00050246       0.00109785       0.33605481       0.30146046      -0.14226065       0.00001578       0.14025167       0.30087247      -0.00119299       0.00023600       0.00006442       0.10304089       0.00000042      -0.00000132      -0.09430485      -0.09701738       0.17667746      -0.00000038      -0.00000087      -0.00000076      -0.13912814       0.00000008       0.00000090       0.07919680       0.02104941       0.02966821       0.00000061      -0.03805961      -0.10937999       0.00000192      -0.00000012      -0.00000060       0.00351711      -0.00000039      -0.00000203      -0.13318641       0.01034389      -0.22655967       0.00000343       0.00440973       0.07800001      -0.00000119      -0.04011031       0.00509104      -0.00000001      -0.08035350      -0.03517561       0.00000065       0.00000006       0.00000011      -0.01181682       0.00207009       0.00179519      -0.00000008      -0.52029516      -0.07716670       0.00000223      -0.00000008      -0.00000001       0.00192081       0.00093338       0.00529737      -0.00000003      -0.01922576       0.02908937      -0.00000034       0.03965149      -0.06032606       0.00000069      -0.00279413      -0.00354144       0.00000005       0.00684677      -0.01257639       0.00000013
C        1.31562667       0.01975177      -2.26614234      -0.00018444       0.00049407       0.16225851      -0.09229575       0.24032147       0.00002729       0.00050246       0.00109289       0.33530478       0.30146107      -0.14226385       0.00001538       0.14024844       0.30695895      -0.00119132       0.00023668      -0.00065616       0.19773506       0.00000082      -0.00000001       0.06913106      -0.10338774      -0.13436733       0.00000243      -0.00000062      -0.00000078       0.05006226      -0.00000048      -0.00000321      -0.15622235       0.02603792       0.10545320      -0.00000324      -0.11657114      -0.05848917       0.00000053      -0.00000070       0.00000034       0.03113218      -0.00000031      -0.00000060      -0.03415752      -0.00174871       0.09787693      -0.00000182       0.07372617      -0.06808843       0.00000095      -0.00961938      -0.00573576       0.00000012      -0.03655727       0.01011078      -0.00000011       0.00000001      -0.00000009      -0.00100521       0.02851820      -0.00007918      -0.00000005       0.46282307       0.00614317      -0.00000123       0.00000003       0.00000000       0.00022002      -0.00109131       0.00058150       0.00000000       0.00036708      -0.00042689       0.00000001      -0.00315517       0.01095426      -0.00000016       0.06134740      -0.02404248       0.00000021      -0.01797284      -0.09123604       0.00000138
H       -0.54785756       0.94622306      -1.02285313      -0.00057720      -0.00029473      -0.52278016      -0.28517891      -0.14391174       0.00268754       0.00050597       0.00109994       0.34095234       0.30146798      -0.14225445       0.00001672       0.13592192       0.29835260      -0.00116794       0.00074992       0.00036575       0.30808101       0.00000137      -0.00000242      -0.24110632      -0.06379115       0.18204692      -0.00000890       0.00000057       0.00000595       0.37562491       0.00000247      -0.00000208      -0.29747072      -0.28749309      -0.14771481       0.00000010      -0.24737010      -0.23404283       0.00000714      -0.00000213      -0.00000894      -0.62138682       0.00000082       0.00000566       0.47327106      -0.18966448      -0.32053687       0.00000252      -0.83076652      -0.41407775       0.00000666      -0.05110253      -0.00069595      -0.00000027       0.09153297       0.06641310      -0.00000098      -0.00000014       0.00000042       0.03009094      -0.02893096      -0.01630472      -0.00000006       0.09341611       0.32206185      -0.00000491      -0.00000001       0.00000001      -0.00098587       0.03079063      -0.05370249       0.00000054       0.22840772      -0.39451688       0.00000451      -0.44272279       0.75396366      -0.00000866      -0.01545228       0.03002717      -0.00000033      -0.05873820       0.10694769      -0.00000121
H        1.88792870       0.92759001      -1.58337927      -0.00056703       0.00073225       0.05450902      -0.28056468       0.35838396       0.00119407       0.00050595       0.00109076       0.33947353       0.30145500      -0.14225979       0.00001596       0.13604797       0.30959084      -0.00116561       0.00073719      -0.00096564       0.47690998       0.00000128      -0.00000084       0.03668975       0.23220889      -0.34684761      -0.00000078       0.00000504       0.00000419       0.59610778      -0.00000412       0.00001505       0.83068971       0.52058993      -0.22168509       0.00000934      -0.31916403       0.06610723      -0.00000275      -0.00000050       0.00000307       0.21615231       0.00000030       0.00000279       0.20483697       0.31488038      -0.13019483       0.00000036      -0.04121456       0.02269696       0.00000009       0.28728469      -0.17396768       0.00000185       0.54988296      -0.33291287       0.00000335      -0.00000080       0.00000049       0.00539027      -0.09119498       0.06857005      -0.00000064      -0.08357487       0.36277264      -0.00000453       0.00000000      -0.00000001      -0.00243314      -0.00149107      -0.00250474      -0.00000001       0.01480606       0.02224586      -0.00000033      -0.05262717      -0.07570769       0.00000120      -0.24292805      -0.44209991       0.00000693       0.46647478       0.72342613      -0.00001153
C       -0.84274997      -1.22286521       3.20245407       0.00032843      -0.00041438      -0.02071977       0.16106191      -0.20620780      -0.00070711       0.00049781       0.00110099       0.33041712       0.30145177      -0.14225113       0.00001502       0.14592482       0.29696487      -0.00122747      -0.00043924       0.00052502      -0.27943326      -0.00000117       0.00000102       0.00809838       0.15731822       0.01686223      -0.00000178       0.00000104       0.00000107       0.01404126      -0.00000038       0.00000047      -0.01146581       0.00690840      -0.08751194       0.00000088       0.20297140       0.10921681      -0.00000283       0.00000136       0.00000140       0.07089068       0.00000070       0.00000192       0.12458419      -0.03531808       0.16738018      -0.00000206      -0.02309628       0.03310871      -0.00000025      -0.06499949      -0.09294416       0.00000141       0.06783537       0.05274920      -0.00000105      -0.00000068      -0.00000080      -0.06645431       0.03845747      -0.05414837       0.00000008       0.05593032       0.03714399      -0.00000045      -0.00000078       0.00000075       0.08740008       0.06167647      -0.00148734       0.00000143       0.03558923      -0.05412236       0.00000017       0.02400263      -0.02976827       0.00000020       0.00088645      -0.00177144       0.00000002       0.00227723      -0.00180065       0.00000002
H        1.88552381      -0.90186031       0.00299977       0.00020082       0.00073673       0.53811572       0.09703735       0.35719953      -0.00182844       0.00049894       0.00109065       0.33046286       0.30146477      -0.14226034       0.00001445       0.14447025       0.30956370      -0.00121576      -0.00026638      -0.00096933      -0.00090119       0.00000059       0.00000194       0.23307647      -0.43632557      -0.34156017       0.00001489      -0.00000609      -0.00001150      -0.50700554       0.00000705       0.00000920       0.41959693      -0.47236960      -0.22168739       0.00001006      -0.01626530       0.01577872       0.00000648      -0.00000231      -0.00000855      -0.58216990       0.00000015       0.00000447       0.33735421      -0.36656492      -0.15534445       0.00000434       0.28381900       0.07238065      -0.00000267       0.30953970       0.17558235      -0.00000331       0.50221862       0.31278762      -0.00000532      -0.00000051      -0.00000025       0.00785570      -0.09464722      -0.07243036       0.00000109      -0.13273208      -0.38242244       0.00000535       0.00000005      -0.00000006       0.00115822      -0.00088359      -0.00031925       0.00000002      -0.00615041       0.00178240      -0.00000004       0.05555510      -0.08145464       0.00000104      -0.43687674       0.74057729      -0.00000962      -0.27468565       0.39782529      -0.00000513
H       -0.23089512      -2.11481194       1.54718685       0.00070593      -0.00015543       0.36305873       0.34619601      -0.07958179      -0.00255800       0.00049435       0.00109861       0.32599045       0.30143826      -0.14225807       0.00001411       0.15005919       0.29979053      -0.00125224      -0.00093261       0.00018720      -0.46600924      -0.00000689      -0.00000385      -0.46925614       0.44746140       0.21413364      -0.00000775       0.00000232       0.00000233       0.20154231       0.00000334       0.00000303       0.04307107      -0.34761455      -0.31773411       0.00000426      -0.26677602      -0.19412992       0.00000299      -0.00000146      -0.00000095      -0.11340080       0.00000100       0.00000126      -0.22354306       0.45836507       0.47221295      -0.00000522       0.00391538       0.04282083      -0.00000048       0.39725168       0.25599656      -0.00000634      -0.16645193      -0.10825259       0.00000369       0.00000621       0.00000551       0.74196506       0.35108926       0.21592322      -0.00000443      -0.12548377      -0.08390090       0.00000140       0.00000081      -0.00000118       0.04397779       0.01821361       0.00991341       0.00000069      -0.50889552       0.72263145      -0.00000125      -0.26399890       0.37243573      -0.00000055      -0.01413043       0.02252081      -0.00000005      -0.01965513       0.03332267      -0.00000006
H       -1.71127339      -1.98972043       0.22131249       0.20882005      -0.23428890      -0.17014915       0.16311940      -0.33752247      -0.00034284       0.00031140       0.00529291       0.33049042       0.30144464      -0.14224112       0.00001851       0.14597954       0.29401296      -0.00122602       0.06609852       0.22902164      -0.33144970      -0.42846504       0.19563930       0.32291416       0.16695705      -0.20648541      -0.00310216      -0.12526894      -0.25148834       0.11390379      -0.04893748      -0.05583768       0.02928304      -0.02825802       0.17072241       0.01709254       0.13675795       0.52257700       0.02547820       0.17959664       0.25745183      -0.07841264       0.31522388       0.38550855      -0.14121190       0.05070072      -0.16363940      -0.04805605      -0.03579474      -0.11822441       0.00976134       0.21206361       0.42914227      -0.17565940      -0.19621613      -0.13395962       0.16600512      -0.14369518       0.44155666       0.07967050      -0.47952786       0.21451575       0.34973461       0.13336122       0.09258862      -0.08421098      -0.43349874       0.00070846      -0.55431358      -0.38984771      -0.00286100      -0.58649641       0.03623756      -0.02438416       0.02272482      -0.00854844      -0.01311136      -0.02842101       0.00056053      -0.00061765      -0.00125577      -0.00397790      -0.00153243      -0.00534727
H       -1.26939538      -0.47481238       1.97956756      -0.20815514       0.23292093      -0.17014922       0.16417573      -0.34042301      -0.00033685       0.00068411      -0.00308609       0.33049047       0.30144516      -0.14224256       0.00001189       0.14597911       0.29396412      -0.00122987      -0.06699152      -0.22726670      -0.33144542       0.42846782      -0.19563030       0.32291032       0.16695760      -0.20648941       0.00310189       0.12527246       0.25149297       0.11389829       0.04893809       0.05583439       0.02928182      -0.02826016       0.17072002      -0.01709538       0.13675889       0.52257775      -0.02548751      -0.17959660      -0.25745009      -0.07840637      -0.31522619      -0.38551430      -0.14120133       0.05070619      -0.16363516       0.04805930      -0.03579436      -0.11822430      -0.00975910       0.21206524       0.42914480       0.17564945      -0.19621809      -0.13396397      -0.16599980       0.14369773      -0.44155360       0.07967560      -0.47953323       0.21451043      -0.34973000       0.13336138       0.09258813       0.08420716       0.43350766      -0.00071605      -0.55434701      -0.38981965      -0.00285274       0.58647844       0.03623783      -0.02438449      -0.02272585      -0.00854635      -0.01311103       0.02841927       0.00056066      -0.00061764       0.00125563      -0.00397751      -0.00153235       0.00534702
9
Properties=species:S:1:pos:R:3:xtb2_normal_mode_displacements_0:R:3:xtb2_normal_mode_displacements_1:R:3:xtb2_normal_mode_displacements_2:R:3:xtb2_normal_mode_displacements_3:R:3:xtb2_normal_mode_displacements_4:R:3:xtb2_normal_mode_displacements_5:R:3:xtb2_normal_mode_displacements_6:R:3:xtb2_normal_mode_displacements_7:R:3:xtb2_normal_mode_displacements_8:R:3:xtb2_normal_mode_displacements_9:R:3:xtb2_normal_mode_displacements_10:R:3:xtb2_normal_mode_displacements_11:R:3:xtb2_normal_mode_displacements_12:R:3:xtb2_normal_mode_displacements_13:R:3:xtb2_normal_mode_displacements_14:R:3:xtb2_normal_mode_displacements_15:R:3:xtb2_normal_mode_displacements_16:R:3:xtb2_normal_mode_displacements_17:R:3:xtb2_normal_mode_displacements_18:R:3:xtb2_normal_mode_displacements_19:R:3:xtb2_normal_mode_displacements_20:R:3:xtb2_normal_mode_displacements_21:R:3:xtb2_normal_mode_displacements_22:R:3:xtb2_normal_mode_displacements_23:R:3:xtb2_normal_mode_displacements_24:R:3:xtb2_normal_mode_displacements_25:R:3:xtb2_normal_mode_displacements_26:R:3 propene=T reference=T _ConfigSet_loc=" / 0 / 0" xtb2_normal_mode_frequencies="-0.0019461934127446617 -0.0012160035104524494 -9.93123452020089e-06 -1.3014229096056314e-06 2.01829311176581e-05 0.001182055215837519 0.020396585011163454 0.052646472270038644 0.0720661965517159 0.1107921441650487 0.11576844989559419 0.12116217101615684 0.12587386431539677 0.1301292403266887 0.14503383082407395 0.16000746051012865 0.17305063547571045 0.17607711388641958 0.183235233322014 0.184200200995007 0.21403806997450184 0.37170880543951323 0.3735009117214228 0.376824539972782 0.37858381524906215 0.3840148551557691 0.3873825460436433" pbc="F F F"
C       -0.00446144       0.01041742      -1.54291832      -0.00018484      -0.00006232      -0.14700365      -0.09212380      -0.03163889       0.00081388       0.00050246       0.00109785       0.33605481       0.30146046      -0.14226065       0.00001578       0.14025167       0.30087247      -0.00119299       0.00023600       0.00006442       0.10304089       0.00000042      -0.00000132      -0.09430485      -0.09701738       0.17667746      -0.00000038      -0.00000087      -0.00000076      -0.13912814       0.00000008       0.00000090       0.07919680       0.02104941       0.02966821       0.00000061      -0.03805961      -0.10937999       0.00000192      -0.00000012      -0.00000060       0.00351711      -0.00000039      -0.00000203      -0.13318641       0.01034389      -0.22655967       0.00000343       0.00440973       0.07800001      -0.00000119      -0.04011031       0.00509104      -0.00000001      -0.08035350      -0.03517561       0.00000065       0.00000006       0.00000011      -0.01181682       0.00207009       0.00179519      -0.00000008      -0.52029516      -0.07716670       0.00000223      -0.00000008      -0.00000001       0.00192081       0.00093338       0.00529737      -0.00000003      -0.01922576       0.02908937      -0.00000034       0.03965149      -0.06032606       0.00000069      -0.00279413      -0.00354144       0.00000005       0.00684677      -0.01257639       0.00000013
C        1.31479513       0.02205709      -2.96085637      -0.00018444       0.00049407       0.16225851      -0.09229575       0.24032147       0.00002729       0.00050246       0.00109289       0.33530478       0.30146107      -0.14226385       0.00001538       0.14024844       0.30695895      -0.00119132       0.00023668      -0.00065616       0.19773506       0.00000082      -0.00000001       0.06913106      -0.10338774      -0.13436733       0.00000243      -0.00000062      -0.00000078       0.05006226      -0.00000048      -0.00000321      -0.15622235       0.02603792       0.10545320      -0.00000324      -0.11657114      -0.05848917       0.00000053      -0.00000070       0.00000034       0.03113218      -0.00000031      -0.00000060      -0.03415752      -0.00174871       0.09787693      -0.00000182       0.07372617      -0.06808843       0.00000095      -0.00961938      -0.00573576       0.00000012      -0.03655727       0.01011078      -0.00000011       0.00000001      -0.00000009      -0.00100521       0.02851820      -0.00007918      -0.00000005       0.46282307       0.00614317      -0.00000123       0.00000003       0.00000000       0.00022002      -0.00109131       0.00058150       0.00000000       0.00036708      -0.00042689       0.00000001      -0.00315517       0.01095426      -0.00000016       0.06134740      -0.02404248       0.00000021      -0.01797284      -0.09123604       0.00000138
H       -0.54862083       0.94585079      -1.33641843      -0.00057720      -0.00029473      -0.52278016      -0.28517891      -0.14391174       0.00268754       0.00050597       0.00109994       0.34095234       0.30146798      -0.14225445       0.00001672       0.13592192       0.29835260      -0.00116794       0.00074992       0.00036575       0.30808101       0.00000137      -0.00000242      -0.24110632      -0.06379115       0.18204692      -0.00000890       0.00000057       0.00000595       0.37562491       0.00000247      -0.00000208      -0.29747072      -0.28749309      -0.14771481       0.00000010      -0.24737010      -0.23404283       0.00000714      -0.00000213      -0.00000894      -0.62138682       0.00000082       0.00000566       0.47327106      -0.18966448      -0.32053687       0.00000252      -0.83076652      -0.41407775       0.00000666      -0.05110253      -0.00069595      -0.00000027       0.09153297       0.06641310      -0.00000098      -0.00000014       0.00000042       0.03009094      -0.02893096      -0.01630472      -0.00000006       0.09341611       0.32206185      -0.00000491      -0.00000001       0.00000001      -0.00098587       0.03079063      -0.05370249       0.00000054       0.22840772      -0.39451688       0.00000451      -0.44272279       0.75396366      -0.00000866      -0.01545228       0.03002717      -0.00000033      -0.05873820       0.10694769      -0.00000121
H        1.88717839       0.92857284      -2.06877895      -0.00056703       0.00073225       0.05450902      -0.28056468       0.35838396       0.00119407       0.00050595       0.00109076       0.33947353       0.30145500      -0.14225979       0.00001596       0.13604797       0.30959084      -0.00116561       0.00073719      -0.00096564       0.47690998       0.00000128      -0.00000084       0.03668975       0.23220889      -0.34684761      -0.00000078       0.00000504       0.00000419       0.59610778      -0.00000412       0.00001505       0.83068971       0.52058993      -0.22168509       0.00000934      -0.31916403       0.06610723      -0.00000275      -0.00000050       0.00000307       0.21615231       0.00000030       0.00000279       0.20483697       0.31488038      -0.13019483       0.00000036      -0.04121456       0.02269696       0.00000009       0.28728469      -0.17396768       0.00000185       0.54988296      -0.33291287       0.00000335      -0.00000080       0.00000049       0.00539027      -0.09119498       0.06857005      -0.00000064      -0.08357487       0.36277264      -0.00000453       0.00000000      -0.00000001      -0.00243314      -0.00149107      -0.00250474      -0.00000001       0.01480606       0.02224586      -0.00000033      -0.05262717      -0.07570769       0.00000120      -0.24292805      -0.44209991       0.00000693       0.46647478       0.72342613      -0.00001153
C       -0.84120676      -1.22470979       4.18420311       0.00032843      -0.00041438      -0.02071977       0.16106191      -0.20620780      -0.00070711       0.00049781       0.00110099       0.33041712       0.30145177      -0.14225113       0.00001502       0.14592482       0.29696487      -0.00122747      -0.00043924       0.00052502      -0.27943326      -0.00000117       0.00000102       0.00809838       0.15731822       0.01686223      -0.00000178       0.00000104       0.00000107       0.01404126      -0.00000038       0.00000047      -0.01146581       0.00690840      -0.08751194       0.00000088       0.20297140       0.10921681      -0.00000283       0.00000136       0.00000140       0.07089068       0.00000070       0.00000192       0.12458419      -0.03531808       0.16738018      -0.00000206      -0.02309628       0.03310871      -0.00000025      -0.06499949      -0.09294416       0.00000141       0.06783537       0.05274920      -0.00000105      -0.00000068      -0.00000080      -0.06645431       0.03845747      -0.05414837       0.00000008       0.05593032       0.03714399      -0.00000045      -0.00000078       0.00000075       0.08740008       0.06167647      -0.00148734       0.00000143       0.03558923      -0.05412236       0.00000017       0.02400263      -0.02976827       0.00000020       0.00088645      -0.00177144       0.00000002       0.00227723      -0.00180065       0.00000002
H        1.88579493      -0.90087372       0.00391700       0.00020082       0.00073673       0.53811572       0.09703735       0.35719953      -0.00182844       0.00049894       0.00109065       0.33046286       0.30146477      -0.14226034       0.00001445       0.14447025       0.30956370      -0.00121576      -0.00026638      -0.00096933      -0.00090119       0.00000059       0.00000194       0.23307647      -0.43632557      -0.34156017       0.00001489      -0.00000609      -0.00001150      -0.50700554       0.00000705       0.00000920       0.41959693      -0.47236960      -0.22168739       0.00001006      -0.01626530       0.01577872       0.00000648      -0.00000231      -0.00000855      -0.58216990       0.00000015       0.00000447       0.33735421      -0.36656492      -0.15534445       0.00000434       0.28381900       0.07238065      -0.00000267       0.30953970       0.17558235      -0.00000331       0.50221862       0.31278762      -0.00000532      -0.00000051      -0.00000025       0.00785570      -0.09464722      -0.07243036       0.00000109      -0.13273208      -0.38242244       0.00000535       0.00000005      -0.00000006       0.00115822      -0.00088359      -0.00031925       0.00000002      -0.00615041       0.00178240      -0.00000004       0.05555510      -0.08145464       0.00000104      -0.43687674       0.74057729      -0.00000962      -0.27468565       0.39782529      -0.00000513
H       -0.22994591      -2.11500247       2.02149174       0.00070593      -0.00015543       0.36305873       0.34619601      -0.07958179      -0.00255800       0.00049435       0.00109861       0.32599045       0.30143826      -0.14225807       0.00001411       0.15005919       0.29979053      -0.00125224      -0.00093261       0.00018720      -0.46600924      -0.00000689      -0.00000385      -0.46925614       0.44746140       0.21413364      -0.00000775       0.00000232       0.00000233       0.20154231       0.00000334       0.00000303       0.04307107      -0.34761455      -0.31773411       0.00000426      -0.26677602      -0.19412992       0.00000299      -0.00000146      -0.00000095      -0.11340080       0.00000100       0.00000126      -0.22354306       0.45836507       0.47221295      -0.00000522       0.00391538       0.04282083      -0.00000048       0.39725168       0.25599656      -0.00000634      -0.16645193      -0.10825259       0.00000369       0.00000621       0.00000551       0.74196506       0.35108926       0.21592322      -0.00000443      -0.12548377      -0.08390090       0.00000140       0.00000081      -0.00000118       0.04397779       0.01821361       0.00991341       0.00000069      -0.50889552       0.72263145      -0.00000125      -0.26399890       0.37243573      -0.00000055      -0.01413043       0.02252081      -0.00000005      -0.01965513       0.03332267      -0.00000006
H       -1.77854857      -2.22281899       0.55866248       0.20882005      -0.23428890      -0.17014915       0.16311940      -0.33752247      -0.00034284       0.00031140       0.00529291       0.33049042       0.30144464      -0.14224112       0.00001851       0.14597954       0.29401296      -0.00122602       0.06609852       0.22902164      -0.33144970      -0.42846504       0.19563930       0.32291416       0.16695705      -0.20648541      -0.00310216      -0.12526894      -0.25148834       0.11390379      -0.04893748      -0.05583768       0.02928304      -0.02825802       0.17072241       0.01709254       0.13675795       0.52257700       0.02547820       0.17959664       0.25745183      -0.07841264       0.31522388       0.38550855      -0.14121190       0.05070072      -0.16363940      -0.04805605      -0.03579474      -0.11822441       0.00976134       0.21206361       0.42914227      -0.17565940      -0.19621613      -0.13395962       0.16600512      -0.14369518       0.44155666       0.07967050      -0.47952786       0.21451575       0.34973461       0.13336122       0.09258862      -0.08421098      -0.43349874       0.00070846      -0.55431358      -0.38984771      -0.00286100      -0.58649641       0.03623756      -0.02438416       0.02272482      -0.00854844      -0.01311136      -0.02842101       0.00056053      -0.00061765      -0.00125577      -0.00397790      -0.00153243      -0.00534727
H       -1.20121131      -0.24350000       2.31691319      -0.20815514       0.23292093      -0.17014922       0.16417573      -0.34042301      -0.00033685       0.00068411      -0.00308609       0.33049047       0.30144516      -0.14224256       0.00001189       0.14597911       0.29396412      -0.00122987      -0.06699152      -0.22726670      -0.33144542       0.42846782      -0.19563030       0.32291032       0.16695760      -0.20648941       0.00310189       0.12527246       0.25149297       0.11389829       0.04893809       0.05583439       0.02928182      -0.02826016       0.17072002      -0.01709538       0.13675889       0.52257775      -0.02548751      -0.17959660      -0.25745009      -0.07840637      -0.31522619      -0.38551430      -0.14120133       0.05070619      -0.16363516       0.04805930      -0.03579436      -0.11822430      -0.00975910       0.21206524       0.42914480       0.17564945      -0.19621809      -0.13396397      -0.16599980       0.14369773      -0.44155360       0.07967560      -0.47953323       0.21451043      -0.34973000       0.13336138       0.09258813       0.08420716       0.43350766      -0.00071605      -0.55434701      -0.38981965      -0.00285274       0.58647844       0.03623783      -0.02438449      -0.02272585      -0.00854635      -0.01311103       0.02841927       0.00056066      -0.00061764       0.00125563      -0.00397751      -0.00153235       0.00534702
9
Properties=species:S:1:pos:R:3:xtb2_normal_mode_displacements_0:R:3:xtb2_normal_mode_displacements_1:R:3:xtb2_normal_mode_displacements_2:R:3:xtb2_normal_mode_displacements_3:R:3:xtb2_normal_mode_displacements_4:R:3:xtb2_normal_mode_displacements_5:R:3:xtb2_normal_mode_displacements_6:R:3:xtb2_normal_mode_displacements_7:R:3:xtb2_normal_mode_displacements_8:R:3:xtb2_normal_mode_displacements_9:R:3:xtb2_normal_mode_displacements_10:R:3:xtb2_normal_mode_displacements_11:R:3:xtb2_normal_mode_displacements_12:R:3:xtb2_normal_mode_displacements_13:R:3:xtb2_normal_mode_displacements_14:R:3:xtb2_normal_mode_displacements_15:R:3:xtb2_normal_mode_displacements_16:R:3:xtb2_normal_mode_displacements_17:R:3:xtb2_normal_mode_displacements_18:R:3:xtb2_normal_mode_displacements_19:R:3:xtb2_normal_mode_displacements_20:R:3:xtb2_normal_mode_displacements_21:R:3:xtb2_normal_mode_displacements_22:R:3:xtb2_normal_mode_displacements_23:R:3:xtb2_normal_mode_displacements_24:R:3:xtb2_normal_mode_displacements_25:R:3:xtb2_normal_mode_displacements_26:R:3 propene=T reference=T _ConfigSet_loc=" / 0 / 0" xtb2_normal_mode_frequencies="-0.0019461934127446617 -0.0012160035104524494 -9.93123452020089e-06 -1.3014229096056314e-06 2.01829311176581e-05 0.001182055215837519 0.020396585011163454 0.052646472270038644 0.0720661965517159 0.1107921441650487 0.11576844989559419 0.12116217101615684 0.12587386431539677 0.1301292403266887 0.14503383082407395 0.16000746051012865 0.17305063547571045 0.17607711388641958 0.183235233322014 0.184200200995007 0.21403806997450184 0.37170880543951323 0.3735009117214228 0.376824539972782 0.37858381524906215 0.3840148551557691 0.3873825460436433" pbc="F F F"
C       -0.00475259       0.01033794      -1.67004267      -0.00018484      -0.00006232      -0.14700365      -0.09212380      -0.03163889       0.00081388       0.00050246       0.00109785       0.33605481       0.30146046      -0.14226065       0.00001578       0.14025167       0.30087247      -0.00119299       0.00023600       0.00006442       0.10304089       0.00000042      -0.00000132      -0.09430485      -0.09701738       0.17667746      -0.00000038      -0.00000087      -0.00000076      -0.13912814       0.00000008       0.00000090       0.07919680       0.02104941       0.02966821       0.00000061      -0.03805961      -0.10937999       0.00000192      -0.00000012      -0.00000060       0.00351711      -0.00000039      -0.00000203      -0.13318641       0.01034389      -0.22655967       0.00000343       0.00440973       0.07800001      -0.00000119      -0.04011031       0.00509104      -0.00000001      -0.08035350      -0.03517561       0.00000065       0.00000006       0.00000011      -0.01181682       0.00207009       0.00179519      -0.00000008      -0.52029516      -0.07716670       0.00000223      -0.00000008      -0.00000001       0.00192081       0.00093338       0.00529737      -0.00000003      -0.01922576       0.02908937      -0.00000034       0.03965149      -0.06032606       0.00000069      -0.00279413      -0.00354144       0.00000005       0.00684677      -0.01257639       0.00000013
C        1.31450313       0.02286661      -3.20480749      -0.00018444       0.00049407       0.16225851      -0.09229575       0.24032147       0.00002729       0.00050246       0.00109289       0.33530478       0.30146107      -0.14226385       0.00001538       0.14024844       0.30695895      -0.00119132       0.00023668      -0.00065616       0.19773506       0.00000082      -0.00000001       0.06913106      -0.10338774      -0.13436733       0.00000243      -0.00000062      -0.00000078       0.05006226      -0.00000048      -0.00000321      -0.15622235       0.02603792       0.10545320      -0.00000324      -0.11657114      -0.05848917       0.00000053      -0.00000070       0.00000034       0.03113218      -0.00000031      -0.00000060      -0.03415752      -0.00174871       0.09787693      -0.00000182       0.07372617      -0.06808843       0.00000095      -0.00961938      -0.00573576       0.00000012      -0.03655727       0.01011078      -0.00000011       0.00000001      -0.00000009      -0.00100521       0.02851820      -0.00007918      -0.00000005       0.46282307       0.00614317      -0.00000123       0.00000003       0.00000000       0.00022002      -0.00109131       0.00058150       0.00000000       0.00036708      -0.00042689       0.00000001      -0.00315517       0.01095426      -0.00000016       0.06134740      -0.02404248       0.00000021      -0.01797284      -0.09123604       0.00000138
H       -0.54888886       0.94572007      -1.44652792      -0.00057720      -0.00029473      -0.52278016      -0.28517891      -0.14391174       0.00268754       0.00050597       0.00109994       0.34095234       0.30146798      -0.14225445       0.00001672       0.13592192       0.29835260      -0.00116794       0.00074992       0.00036575       0.30808101       0.00000137      -0.00000242      -0.24110632      -0.06379115       0.18204692      -0.00000890       0.00000057       0.00000595       0.37562491       0.00000247      -0.00000208      -0.29747072      -0.28749309      -0.14771481       0.00000010      -0.24737010      -0.23404283       0.00000714      -0.00000213      -0.00000894      -0.62138682       0.00000082       0.00000566       0.47327106      -0.18966448      -0.32053687       0.00000252      -0.83076652      -0.41407775       0.00000666      -0.05110253      -0.00069595      -0.00000027       0.09153297       0.06641310      -0.00000098      -0.00000014       0.00000042       0.03009094      -0.02893096      -0.01630472      -0.00000006       0.09341611       0.32206185      -0.00000491      -0.00000001       0.00000001      -0.00098587       0.03079063      -0.05370249       0.00000054       0.22840772      -0.39451688       0.00000451      -0.44272279       0.75396366      -0.00000866      -0.01545228       0.03002717      -0.00000033      -0.05873820       0.10694769      -0.00000121
H        1.88691491       0.92891797      -2.23922865      -0.00056703       0.00073225       0.05450902      -0.28056468       0.35838396       0.00119407       0.00050595       0.00109076       0.33947353       0.30145500      -0.14225979       0.00001596       0.13604797       0.30959084      -0.00116561       0.00073719      -0.00096564       0.47690998       0.00000128      -0.00000084       0.03668975       0.23220889      -0.34684761      -0.00000078       0.00000504       0.00000419       0.59610778      -0.00000412       0.00001505       0.83068971       0.52058993      -0.22168509       0.00000934      -0.31916403       0.06610723      -0.00000275      -0.00000050       0.00000307       0.21615231       0.00000030       0.00000279       0.20483697       0.31488038      -0.13019483       0.00000036      -0.04121456       0.02269696       0.00000009       0.28728469      -0.17396768       0.00000185       0.54988296      -0.33291287       0.00000335      -0.00000080       0.00000049       0.00539027      -0.09119498       0.06857005      -0.00000064      -0.08357487       0.36277264      -0.00000453       0.00000000      -0.00000001      -0.00243314      -0.00149107      -0.00250474      -0.00000001       0.01480606       0.02224586      -0.00000033      -0.05262717      -0.07570769       0.00000120      -0.24292805      -0.44209991       0.00000693       0.46647478       0.72342613      -0.00001153
C       -0.84066486      -1.22535752       4.52894753       0.00032843      -0.00041438      -0.02071977       0.16106191      -0.20620780      -0.00070711       0.00049781       0.00110099       0.33041712       0.30145177      -0.14225113       0.00001502       0.14592482       0.29696487      -0.00122747      -0.00043924       0.00052502      -0.27943326      -0.00000117       0.00000102       0.00809838       0.15731822       0.01686223      -0.00000178       0.00000104       0.00000107       0.01404126      -0.00000038       0.00000047      -0.01146581       0.00690840      -0.08751194       0.00000088       0.20297140       0.10921681      -0.00000283       0.00000136       0.00000140       0.07089068       0.00000070       0.00000192       0.12458419      -0.03531808       0.16738018      -0.00000206      -0.02309628       0.03310871      -0.00000025      -0.06499949      -0.09294416       0.00000141       0.06783537       0.05274920      -0.00000105      -0.00000068      -0.00000080      -0.06645431       0.03845747      -0.05414837       0.00000008       0.05593032       0.03714399      -0.00000045      -0.00000078       0.00000075       0.08740008       0.06167647      -0.00148734       0.00000143       0.03558923      -0.05412236       0.00000017       0.02400263      -0.02976827       0.00000020       0.00088645      -0.00177144       0.00000002       0.00227723      -0.00180065       0.00000002
H        1.88589014      -0.90052728       0.00423909       0.00020082       0.00073673       0.53811572       0.09703735       0.35719953      -0.00182844       0.00049894       0.00109065       0.33046286       0.30146477      -0.14226034       0.00001445       0.14447025       0.30956370      -0.00121576      -0.00026638      -0.00096933      -0.00090119       0.00000059       0.00000194       0.23307647      -0.43632557      -0.34156017       0.00001489      -0.00000609      -0.00001150      -0.50700554       0.00000705       0.00000920       0.41959693      -0.47236960      -0.22168739       0.00001006      -0.01626530       0.01577872       0.00000648      -0.00000231      -0.00000855      -0.58216990       0.00000015       0.00000447       0.33735421      -0.36656492      -0.15534445       0.00000434       0.28381900       0.07238065      -0.00000267       0.30953970       0.17558235      -0.00000331       0.50221862       0.31278762      -0.00000532      -0.00000051      -0.00000025       0.00785570      -0.09464722      -0.07243036       0.00000109      -0.13273208      -0.38242244       0.00000535       0.00000005      -0.00000006       0.00115822      -0.00088359      -0.00031925       0.00000002      -0.00615041       0.00178240      -0.00000004       0.05555510      -0.08145464       0.00000104      -0.43687674       0.74057729      -0.00000962      -0.27468565       0.39782529      -0.00000513
H       -0.22961259      -2.11506938       2.18804547       0.00070593      -0.00015543       0.36305873       0.34619601      -0.07958179      -0.00255800       0.00049435       0.00109861       0.32599045       0.30143826      -0.14225807       0.00001411       0.15005919       0.29979053      -0.00125224      -0.00093261       0.00018720      -0.46600924      -0.00000689      -0.00000385      -0.46925614       0.44746140       0.21413364      -0.00000775       0.00000232       0.00000233       0.20154231       0.00000334       0.00000303       0.04307107      -0.34761455      -0.31773411       0.00000426      -0.26677602      -0.19412992       0.00000299      -0.00000146      -0.00000095      -0.11340080       0.00000100       0.00000126      -0.22354306       0.45836507       0.47221295      -0.00000522       0.00391538       0.04282083      -0.00000048       0.39725168       0.25599656      -0.00000634      -0.16645193      -0.10825259       0.00000369       0.00000621       0.00000551       0.74196506       0.35108926       0.21592322      -0.00000443      -0.12548377      -0.08390090       0.00000140       0.00000081      -0.00000118       0.04397779       0.01821361       0.00991341       0.00000069      -0.50889552       0.72263145      -0.00000125      -0.26399890       0.37243573      -0.00000055      -0.01413043       0.02252081      -0.00000005      -0.01965513       0.03332267      -0.00000006
H       -1.80217246      -2.30467232       0.67712404       0.20882005      -0.23428890      -0.17014915       0.16311940      -0.33752247      -0.00034284       0.00031140       0.00529291       0.33049042       0.30144464      -0.14224112       0.00001851       0.14597954       0.29401296      -0.00122602       0.06609852       0.22902164      -0.33144970      -0.42846504       0.19563930       0.32291416       0.16695705      -0.20648541      -0.00310216      -0.12526894      -0.25148834       0.11390379      -0.04893748      -0.05583768       0.02928304      -0.02825802       0.17072241       0.01709254       0.13675795       0.52257700       0.02547820       0.17959664       0.25745183      -0.07841264       0.31522388       0.38550855      -0.14121190       0.05070072      -0.16363940      -0.04805605      -0.03579474      -0.11822441       0.00976134       0.21206361       0.42914227      -0.17565940      -0.19621613      -0.13395962       0.16600512      -0.14369518       0.44155666       0.07967050      -0.47952786       0.21451575       0.34973461       0.13336122       0.09258862      -0.08421098      -0.43349874       0.00070846      -0.55431358      -0.38984771      -0.00286100      -0.58649641       0.03623756      -0.02438416       0.02272482      -0.00854844      -0.01311136      -0.02842101       0.00056053      -0.00061765      -0.00125577      -0.00397790      -0.00153243      -0.00534727
H       -1.17726825      -0.16227389       2.43537322      -0.20815514       0.23292093      -0.17014922       0.16417573      -0.34042301      -0.00033685       0.00068411      -0.00308609       0.33049047       0.30144516      -0.14224256       0.00001189       0.14597911       0.29396412      -0.00122987      -0.06699152      -0.22726670      -0.33144542       0.42846782      -0.19563030       0.32291032       0.16695760      -0.20648941       0.00310189       0.12527246       0.25149297       0.11389829       0.04893809       0.05583439       0.02928182      -0.02826016       0.17072002      -0.01709538       0.13675889       0.52257775      -0.02548751      -0.17959660      -0.25745009      -0.07840637      -0.31522619      -0.38551430      -0.14120133       0.05070619      -0.16363516       0.04805930      -0.03579436      -0.11822430      -0.00975910       0.21206524       0.42914480       0.17564945      -0.19621809      -0.13396397      -0.16599980       0.14369773      -0.44155360       0.07967560      -0.47953323       0.21451043      -0.34973000       0.13336138       0.09258813       0.08420716       0.43350766      -0.00071605      -0.55434701      -0.38981965      -0.00285274       0.58647844       0.03623783      -0.02438449      -0.02272585      -0.00854635      -0.01311103       0.02841927       0.00056066      -0.00061764       0.00125563      -0.00397751      -0.00153235       0.00534702
9
Properties=species:S:1:pos:R:3:xtb2_normal_mode_displacements_0:R:3:xtb2_normal_mode_displacements_1:R:3:xtb2_normal_mode_displacements_2:R:3:xtb2_normal_mode_displacements_3:R:3:xtb2_normal_mode_displacements_4:R:3:xtb2_normal_mode_displacements_5:R:3:xtb2_normal_mode_displacements_6:R:3:xtb2_normal_mode_displacements_7:R:3:xtb2_normal_mode_displacements_8:R:3:xtb2_normal_mode_displacements_9:R:3:xtb2_normal_mode_displacements_10:R:3:xtb2_normal_mode_displacements_11:R:3:xtb2_normal_mode_displacements_12:R:3:xtb2_normal_mode_displacements_13:R:3:xtb2_normal_mode_displacements_14:R:3:xtb2_normal_mode_displacements_15:R:3:xtb2_normal_mode_displacements_16:R:3:xtb2_normal_mode_displacements_17:R:3:xtb2_normal_mode_displacements_18:R:3:xtb2_normal_mode_displacements_19:R:3:xtb2_normal_mode_displacements_20:R:3:xtb2_normal_mode_displacements_21:R:3:xtb2_normal_mode_displacements_22:R:3:xtb2_normal_mode_displacements_23:R:3:xtb2_normal_mode_displacements_24:R:3:xtb2_normal_mode_displacements_25:R:3:xtb2_normal_mode_displacements_26:R:3 propene=T reference=T _ConfigSet_loc=" / 0 / 0" xtb2_normal_mode_frequencies="-0.0019461934127446617 -0.0012160035104524494 -9.93123452020089e-06 -1.3014229096056314e-06 2.01829311176581e-05 0.001182055215837519 0.020396585011163454 0.052646472270038644 0.0720661965517159 0.1107921441650487 0.11576844989559419 0.12116217101615684 0.12587386431539677 0.1301292403266887 0.14503383082407395 0.16000746051012865 0.17305063547571045 0.17607711388641958 0.183235233322014 0.184200200995007 0.21403806997450184 0.37170880543951323 0.3735009117214228 0.376824539972782 0.37858381524906215 0.3840148551557691 0.3873825460436433" pbc="F F F"
C       -0.00446144       0.01041742      -1.54291832      -0.00018484      -0.00006232      -0.14700365      -0.09212380      -0.03163889       0.00081388       0.00050246       0.00109785       0.33605481       0.30146046      -0.14226065       0.00001578       0.14025167       0.30087247      -0.00119299       0.00023600       0.00006442       0.10304089       0.00000042      -0.00000132      -0.09430485      -0.09701738       0.17667746      -0.00000038      -0.00000087      -0.00000076      -0.13912814       0.00000008       0.00000090       0.07919680       0.02104941       0.02966821       0.00000061      -0.03805961      -0.10937999       0.00000192      -0.00000012      -0.00000060       0.00351711      -0.00000039      -0.00000203      -0.13318641       0.01034389      -0.22655967       0.00000343       0.00440973       0.07800001      -0.00000119      -0.04011031       0.00509104      -0.00000001      -0.08035350      -0.03517561       0.00000065       0.00000006       0.00000011      -0.01181682       0.00207009       0.00179519      -0.00000008      -0.52029516      -0.07716670       0.00000223      -0.00000008      -0.00000001       0.00192081       0.00093338       0.00529737      -0.00000003      -0.01922576       0.02908937      -0.00000034       0.03965149      -0.06032606       0.00000069      -0.00279413      -0.00354144       0.00000005       0.00684677      -0.01257639       0.00000013
C        1.31479513       0.02205709      -2.96085637      -0.00018444       0.00049407       0.16225851      -0.09229575       0.24032147       0.00002729       0.00050246       0.00109289       0.33530478       0.30146107      -0.14226385       0.00001538       0.14024844       0.30695895      -0.00119132       0.00023668      -0.00065616       0.19773506       0.00000082      -0.00000001       0.06913106      -0.10338774      -0.13436733       0.00000243      -0.00000062      -0.00000078       0.05006226      -0.00000048      -0.00000321      -0.15622235       0.02603792       0.10545320      -0.00000324      -0.11657114      -0.05848917       0.00000053      -0.00000070       0.00000034       0.03113218      -0.00000031      -0.00000060      -0.03415752      -0.00174871       0.09787693      -0.00000182       0.07372617      -0.06808843       0.00000095      -0.00961938      -0.00573576       0.00000012      -0.03655727       0.01011078      -0.00000011       0.00000001      -0.00000009      -0.00100521       0.02851820      -0.00007918      -0.00000005       0.46282307       0.00614317      -0.00000123       0.00000003       0.00000000       0.00022002      -0.00109131       0.00058150       0.00000000       0.00036708      -0.00042689       0.00000001      -0.00315517       0.01095426      -0.00000016       0.06134740      -0.02404248       0.00000021      -0.01797284      -0.09123604       0.00000138
H       -0.54862083       0.94585079      -1.33641843      -0.00057720      -0.00029473      -0.52278016      -0.28517891      -0.14391174       0.00268754       0.00050597       0.00109994       0.34095234       0.30146798      -0.14225445       0.00001672       0.13592192       0.29835260      -0.00116794       0.00074992       0.00036575       0.30808101       0.00000137      -0.00000242      -0.24110632      -0.06379115       0.18204692      -0.00000890       0.00000057       0.00000595       0.37562491       0.00000247      -0.00000208      -0.29747072      -0.28749309      -0.14771481       0.00000010      -0.24737010      -0.23404283       0.00000714      -0.00000213      -0.00000894      -0.62138682       0.00000082       0.00000566       0.47327106      -0.18966448      -0.32053687       0.00000252      -0.83076652      -0.41407775       0.00000666      -0.05110253      -0.00069595      -0.00000027       0.09153297       0.06641310      -0.00000098      -0.00000014       0.00000042       0.03009094      -0.02893096      -0.01630472      -0.00000006       0.09341611       0.32206185      -0.00000491      -0.00000001       0.00000001      -0.00098587       0.03079063      -0.05370249       0.00000054       0.22840772      -0.39451688       0.00000451      -0.44272279       0.75396366      -0.00000866      -0.01545228       0.03002717      -0.00000033      -0.05873820       0.10694769      -0.00000121
H        1.88717839       0.92857284      -2.06877895      -0.00056703       0.00073225       0.05450902      -0.28056468       0.35838396       0.00119407       0.00050595       0.00109076       0.33947353       0.30145500      -0.14225979       0.00001596       0.13604797       0.30959084      -0.00116561       0.00073719      -0.00096564       0.47690998       0.00000128      -0.00000084       0.03668975       0.23220889      -0.34684761      -0.00000078       0.00000504       0.00000419       0.59610778      -0.00000412       0.00001505       0.83068971       0.52058993      -0.22168509       0.00000934      -0.31916403       0.06610723      -0.00000275      -0.00000050       0.00000307       0.21615231       0.00000030       0.00000279       0.20483697       0.31488038      -0.13019483       0.00000036      -0.04121456       0.02269696       0.00000009       0.28728469      -0.17396768       0.00000185       0.54988296      -0.33291287       0.00000335      -0.00000080       0.00000049       0.00539027      -0.09119498       0.06857005      -0.00000064      -0.08357487       0.36277264      -0.00000453       0.00000000      -0.00000001      -0.00243314      -0.00149107      -0.00250474      -0.00000001       0.01480606       0.02224586      -0.00000033      -0.05262717      -0.07570769       0.00000120      -0.24292805      -0.44209991       0.00000693       0.46647478       0.72342613      -0.00001153
C       -0.84120676      -1.22470979       4.18420311       0.00032843      -0.00041438      -0.02071977       0.16106191      -0.20620780      -0.00070711       0.00049781       0.00110099       0.33041712       0.30145177      -0.14225113       0.00001502       0.14592482       0.29696487      -0.00122747      -0.00043924       0.00052502      -0.27943326      -0.00000117       0.00000102       0.00809838       0.15731822       0.01686223      -0.00000178       0.00000104       0.00000107       0.01404126      -0.00000038       0.00000047      -0.01146581       0.00690840      -0.08751194       0.00000088       0.20297140       0.10921681      -0.00000283       0.00000136       0.00000140       0.07089068       0.00000070       0.00000192       0.12458419      -0.03531808       0.16738018      -0.00000206      -0.02309628       0.03310871      -0.00000025      -0.06499949      -0.09294416       0.00000141       0.06783537       0.05274920      -0.00000105      -0.00000068      -0.00000080      -0.06645431       0.03845747      -0.05414837       0.00000008       0.05593032       0.03714399      -0.00000045      -0.00000078       0.00000075       0.08740008       0.06167647      -0.00148734       0.00000143       0.03558923      -0.05412236       0.00000017       0.02400263      -0.02976827       0.00000020       0.00088645      -0.00177144       0.00000002       0.00227723      -0.00180065       0.00000002
H        1.88579493      -0.90087372       0.00391700       0.00020082       0.00073673       0.53811572       0.09703735       0.35719953      -0.00182844       0.00049894       0.00109065       0.33046286       0.30146477      -0.14226034       0.00001445       0.14447025       0.30956370      -0.00121576      -0.00026638      -0.00096933      -0.00090119       0.00000059       0.00000194       0.23307647      -0.43632557      -0.34156017       0.00001489      -0.00000609      -0.00001150      -0.50700554       0.00000705       0.00000920       0.41959693      -0.47236960      -0.22168739       0.00001006      -0.01626530       0.01577872       0.00000648      -0.00000231      -0.00000855      -0.58216990       0.00000015       0.00000447       0.33735421      -0.36656492      -0.15534445       0.00000434       0.28381900       0.07238065      -0.00000267       0.30953970       0.17558235      -0.00000331       0.50221862       0.31278762      -0.00000532      -0.00000051      -0.00000025       0.00785570      -0.09464722      -0.07243036       0.00000109      -0.13273208      -0.38242244       0.00000535       0.00000005      -0.00000006       0.00115822      -0.00088359      -0.00031925       0.00000002      -0.00615041       0.00178240      -0.00000004       0.05555510      -0.08145464       0.00000104      -0.43687674       0.74057729      -0.00000962      -0.27468565       0.39782529      -0.00000513
H       -0.22994591      -2.11500247       2.02149174       0.00070593      -0.00015543       0.36305873       0.34619601      -0.07958179      -0.00255800       0.00049435       0.00109861       0.32599045       0.30143826      -0.14225807       0.00001411       0.15005919       0.29979053      -0.00125224      -0.00093261       0.00018720      -0.46600924      -0.00000689      -0.00000385      -0.46925614       0.44746140       0.21413364      -0.00000775       0.00000232       0.00000233       0.20154231       0.00000334       0.00000303       0.04307107      -0.34761455      -0.31773411       0.00000426      -0.26677602      -0.19412992       0.00000299      -0.00000146      -0.00000095      -0.11340080       0.00000100       0.00000126      -0.22354306       0.45836507       0.47221295      -0.00000522       0.00391538       0.04282083      -0.00000048       0.39725168       0.25599656      -0.00000634      -0.16645193      -0.10825259       0.00000369       0.00000621       0.00000551       0.74196506       0.35108926       0.21592322      -0.00000443      -0.12548377      -0.08390090       0.00000140       0.00000081      -0.00000118       0.04397779       0.01821361       0.00991341       0.00000069      -0.50889552       0.72263145      -0.00000125      -0.26399890       0.37243573      -0.00000055      -0.01413043       0.02252081      -0.00000005      -0.01965513       0.03332267      -0.00000006
H       -1.77854857      -2.22281899       0.55866248       0.20882005      -0.23428890      -0.17014915       0.16311940      -0.33752247      -0.00034284       0.00031140       0.00529291       0.33049042       0.30144464      -0.14224112       0.00001851       0.14597954       0.29401296      -0.00122602       0.06609852       0.22902164      -0.33144970      -0.42846504       0.19563930       0.32291416       0.16695705      -0.20648541      -0.00310216      -0.12526894      -0.25148834       0.11390379      -0.04893748      -0.05583768       0.02928304      -0.02825802       0.17072241       0.01709254       0.13675795       0.52257700       0.02547820       0.17959664       0.25745183      -0.07841264       0.31522388       0.38550855      -0.14121190       0.05070072      -0.16363940      -0.04805605      -0.03579474      -0.11822441       0.00976134       0.21206361       0.42914227      -0.17565940      -0.19621613      -0.13395962       0.16600512      -0.14369518       0.44155666       0.07967050      -0.47952786       0.21451575       0.34973461       0.13336122       0.09258862      -0.08421098      -0.43349874       0.00070846      -0.55431358      -0.38984771      -0.00286100      -0.58649641       0.03623756      -0.02438416       0.02272482      -0.00854844      -0.01311136      -0.02842101       0.00056053      -0.00061765      -0.00125577      -0.00397790      -0.00153243      -0.00534727
H       -1.20121131      -0.24350000       2.31691319      -0.20815514       0.23292093      -0.17014922       0.16417573      -0.34042301      -0.00033685       0.00068411      -0.00308609       0.33049047       0.30144516      -0.14224256       0.00001189       0.14597911       0.29396412      -0.00122987      -0.06699152      -0.22726670      -0.33144542       0.42846782      -0.19563030       0.32291032       0.16695760      -0.20648941       0.00310189       0.12527246       0.25149297       0.11389829       0.04893809       0.05583439       0.02928182      -0.02826016       0.17072002      -0.01709538       0.13675889       0.52257775      -0.02548751      -0.17959660      -0.25745009      -0.07840637      -0.31522619      -0.38551430      -0.14120133       0.05070619      -0.16363516       0.04805930      -0.03579436      -0.11822430      -0.00975910       0.21206524       0.42914480       0.17564945      -0.19621809      -0.13396397      -0.16599980       0.14369773      -0.44155360       0.07967560      -0.47953323       0.21451043      -0.34973000       0.13336138       0.09258813       0.08420716       0.43350766      -0.00071605      -0.55434701      -0.38981965      -0.00285274       0.58647844       0.03623783      -0.02438449      -0.02272585      -0.00854635      -0.01311103       0.02841927       0.00056066      -0.00061764       0.00125563      -0.00397751      -0.00153235       0.00534702
9
Properties=species:S:1:pos:R:3:xtb2_normal_mode_displacements_0:R:3:xtb2_normal_mode_displacements_1:R:3:xtb2_normal_mode_displacements_2:R:3:xtb2_normal_mode_displacements_3:R:3:xtb2_normal_mode_displacements_4:R:3:xtb2_normal_mode_displacements_5:R:3:xtb2_normal_mode_displacements_6:R:3:xtb2_normal_mode_displacements_7:R:3:xtb2_normal_mode_displacements_8:R:3:xtb2_normal_mode_displacements_9:R:3:xtb2_normal_mode_displacements_10:R:3:xtb2_normal_mode_displacements_11:R:3:xtb2_normal_mode_displacements_12:R:3:xtb2_normal_mode_displacements_13:R:3:xtb2_normal_mode_displacements_14:R:3:xtb2_normal_mode_displacements_15:R:3:xtb2_normal_mode_displacements_16:R:3:xtb2_normal_mode_displacements_17:R:3:xtb2_normal_mode_displacements_18:R:3:xtb2_normal_mode_displacements_19:R:3:xtb2_normal_mode_displacements_20:R:3:xtb2_normal_mode_displacements_21:R:3:xtb2_normal_mode_displacements_22:R:3:xtb2_normal_mode_displacements_23:R:3:xtb2_normal_mode_displacements_24:R:3:xtb2_normal_mode_displacements_25:R:3:xtb2_normal_mode_displacements_26:R:3 propene=T reference=T _ConfigSet_loc=" / 0 / 0" xtb2_normal_mode_frequencies="-0.0019461934127446617 -0.0012160035104524494 -9.93123452020089e-06 -1.3014229096056314e-06 2.01829311176581e-05 0.001182055215837519 0.020396585011163454 0.052646472270038644 0.0720661965517159 0.1107921441650487 0.11576844989559419 0.12116217101615684 0.12587386431539677 0.1301292403266887 0.14503383082407395 0.16000746051012865 0.17305063547571045 0.17607711388641958 0.183235233322014 0.184200200995007 0.21403806997450184 0.37170880543951323 0.3735009117214228 0.376824539972782 0.37858381524906215 0.3840148551557691 0.3873825460436433" pbc="F F F"
C       -0.00363228       0.01064375      -1.18089880      -0.00018484      -0.00006232      -0.14700365      -0.09212380      -0.03163889       0.00081388       0.00050246       0.00109785       0.33605481       0.30146046      -0.14226065       0.00001578       0.14025167       0.30087247      -0.00119299       0.00023600       0.00006442       0.10304089       0.00000042      -0.00000132      -0.09430485      -0.09701738       0.17667746      -0.00000038      -0.00000087      -0.00000076      -0.13912814       0.00000008       0.00000090       0.07919680       0.02104941       0.02966821       0.00000061      -0.03805961      -0.10937999       0.00000192      -0.00000012      -0.00000060       0.00351711      -0.00000039      -0.00000203      -0.13318641       0.01034389      -0.22655967       0.00000343       0.00440973       0.07800001      -0.00000119      -0.04011031       0.00509104      -0.00000001      -0.08035350      -0.03517561       0.00000065       0.00000006       0.00000011      -0.01181682       0.00207009       0.00179519      -0.00000008      -0.52029516      -0.07716670       0.00000223      -0.00000008      -0.00000001       0.00192081       0.00093338       0.00529737      -0.00000003      -0.01922576       0.02908937      -0.00000034       0.03965149      -0.06032606       0.00000069      -0.00279413      -0.00354144       0.00000005       0.00684677      -0.01257639       0.00000013
C        1.31562667       0.01975177      -2.26614234      -0.00018444       0.00049407       0.16225851      -0.09229575       0.24032147       0.00002729       0.00050246       0.00109289       0.33530478       0.30146107      -0.14226385       0.00001538       0.14024844       0.30695895      -0.00119132       0.00023668      -0.00065616       0.19773506       0.00000082      -0.00000001       0.06913106      -0.10338774      -0.13436733       0.00000243      -0.00000062      -0.00000078       0.05006226      -0.00000048      -0.00000321      -0.15622235       0.02603792       0.10545320      -0.00000324      -0.11657114      -0.05848917       0.00000053      -0.00000070       0.00000034       0.03113218      -0.00000031      -0.00000060      -0.03415752      -0.00174871       0.09787693      -0.00000182       0.07372617      -0.06808843       0.00000095      -0.00961938      -0.00573576       0.00000012      -0.03655727       0.01011078      -0.00000011       0.00000001      -0.00000009      -0.00100521       0.02851820      -0.00007918      -0.00000005       0.46282307       0.00614317      -0.00000123       0.00000003       0.00000000       0.00022002      -0.00109131       0.00058150       0.00000000       0.00036708      -0.00042689       0.00000001      -0.00315517       0.01095426      -0.00000016       0.06134740      -0.02404248       0.00000021      -0.01797284      -0.09123604       0.00000138
H       -0.54785756       0.94622306      -1.02285313      -0.00057720      -0.00029473      -0.52278016      -0.28517891      -0.14391174       0.00268754       0.00050597       0.00109994       0.34095234       0.30146798      -0.14225445       0.00001672       0.13592192       0.29835260      -0.00116794       0.00074992       0.00036575       0.30808101       0.00000137      -0.00000242      -0.24110632      -0.06379115       0.18204692      -0.00000890       0.00000057       0.00000595       0.37562491       0.00000247      -0.00000208      -0.29747072      -0.28749309      -0.14771481       0.00000010      -0.24737010      -0.23404283       0.00000714      -0.00000213      -0.00000894      -0.62138682       0.00000082       0.00000566       0.47327106      -0.18966448      -0.32053687       0.00000252      -0.83076652      -0.41407775       0.00000666      -0.05110253      -0.00069595      -0.00000027       0.09153297       0.06641310      -0.00000098      -0.00000014       0.00000042       0.03009094      -0.02893096      -0.01630472      -0.00000006       0.09341611       0.32206185      -0.00000491      -0.00000001       0.00000001      -0.00098587       0.03079063      -0.05370249       0.00000054       0.22840772      -0.39451688       0.00000451      -0.44272279       0.75396366      -0.00000866      -0.01545228       0.03002717      -0.00000033      -0.05873820       0.10694769      -0.00000121
H        1.88792870       0.92759001      -1.58337927      -0.00056703       0.00073225       0.05450902      -0.28056468       0.35838396       0.00119407       0.00050595       0.00109076       0.33947353       0.30145500      -0.14225979       0.00001596       0.13604797       0.30959084      -0.00116561       0.00073719      -0.00096564       0.47690998       0.00000128      -0.00000084       0.03668975       0.23220889      -0.34684761      -0.00000078       0.00000504       0.00000419       0.59610778      -0.00000412       0.00001505       0.83068971       0.52058993      -0.22168509       0.00000934      -0.31916403       0.06610723      -0.00000275      -0.00000050       0.00000307       0.21615231       0.00000030       0.00000279       0.20483697       0.31488038      -0.13019483       0.00000036      -0.04121456       0.02269696       0.00000009       0.28728469      -0.17396768       0.00000185       0.54988296      -0.33291287       0.00000335      -0.00000080       0.00000049       0.00539027      -0.09119498       0.06857005      -0.00000064      -0.08357487       0.36277264      -0.00000453       0.00000000      -0.00000001      -0.00243314      -0.00149107      -0.00250474      -0.00000001       0.01480606       0.02224586      -0.00000033      -0.05262717      -0.07570769       0.00000120      -0.24292805      -0.44209991       0.00000693       0.46647478       0.72342613      -0.00001153
C       -0.84274997      -1.22286521       3.20245407       0.00032843      -0.00041438      -0.02071977       0.16106191      -0.20620780      -0.00070711       0.00049781       0.00110099       0.33041712       0.30145177      -0.14225113       0.00001502       0.14592482       0.29696487      -0.00122747      -0.00043924       0.00052502      -0.27943326      -0.00000117       0.00000102       0.00809838       0.15731822       0.01686223      -0.00000178       0.00000104       0.00000107       0.01404126      -0.00000038       0.00000047      -0.01146581       0.00690840      -0.08751194       0.00000088       0.20297140       0.10921681      -0.00000283       0.00000136       0.00000140       0.07089068       0.00000070       0.00000192       0.12458419      -0.03531808       0.16738018      -0.00000206      -0.02309628       0.03310871      -0.00000025      -0.06499949      -0.09294416       0.00000141       0.06783537       0.05274920      -0.00000105      -0.00000068      -0.00000080      -0.06645431       0.03845747      -0.05414837       0.00000008       0.05593032       0.03714399      -0.00000045      -0.00000078       0.00000075       0.08740008       0.06167647      -0.00148734       0.00000143       0.03558923      -0.05412236       0.00000017       0.02400263      -0.02976827       0.00000020       0.00088645      -0.00177144       0.00000002       0.00227723      -0.00180065       0.00000002
H        1.88552381      -0.90186031       0.00299977       0.00020082       0.00073673       0.53811572       0.09703735       0.35719953      -0.00182844       0.00049894       0.00109065       0.33046286       0.30146477      -0.14226034       0.00001445       0.14447025       0.30956370      -0.00121576      -0.00026638      -0.00096933      -0.00090119       0.00000059       0.00000194       0.23307647      -0.43632557      -0.34156017       0.00001489      -0.00000609      -0.00001150      -0.50700554       0.00000705       0.00000920       0.41959693      -0.47236960      -0.22168739       0.00001006      -0.01626530       0.01577872       0.00000648      -0.00000231      -0.00000855      -0.58216990       0.00000015       0.00000447       0.33735421      -0.36656492      -0.15534445       0.00000434       0.28381900       0.07238065      -0.00000267       0.30953970       0.17558235      -0.00000331       0.50221862       0.31278762      -0.00000532      -0.00000051      -0.00000025       0.00785570      -0.09464722      -0.07243036       0.00000109      -0.13273208      -0.38242244       0.00000535       0.00000005      -0.00000006       0.00115822      -0.00088359      -0.00031925       0.00000002      -0.00615041       0.00178240      -0.00000004       0.05555510      -0.08145464       0.00000104      -0.43687674       0.74057729      -0.00000962      -0.27468565       0.39782529      -0.00000513
H       -0.23089512      -2.11481194       1.54718685       0.00070593      -0.00015543       0.36305873       0.34619601      -0.07958179      -0.00255800       0.00049435       0.00109861       0.32599045       0.30143826      -0.14225807       0.00001411       0.15005919       0.29979053      -0.00125224      -0.00093261       0.00018720      -0.46600924      -0.00000689      -0.00000385      -0.46925614       0.44746140       0.21413364      -0.00000775       0.00000232       0.00000233       0.20154231       0.00000334       0.00000303       0.04307107      -0.34761455      -0.31773411       0.00000426      -0.26677602      -0.19412992       0.00000299      -0.00000146      -0.00000095      -0.11340080       0.00000100       0.00000126      -0.22354306       0.45836507       0.47221295      -0.00000522       0.00391538       0.04282083      -0.00000048       0.39725168       0.25599656      -0.00000634      -0.16645193      -0.10825259       0.00000369       0.00000621       0.00000551       0.74196506       0.35108926       0.21592322      -0.00000443      -0.12548377      -0.08390090       0.00000140       0.00000081      -0.00000118       0.04397779       0.01821361       0.00991341       0.00000069      -0.50889552       0.72263145      -0.00000125      -0.26399890       0.37243573      -0.00000055      -0.01413043       0.02252081      -0.00000005      -0.01965513       0.03332267      -0.00000006
H       -1.71127339      -1.98972043       0.22131249       0.20882005      -0.23428890      -0.17014915       0.16311940      -0.33752247      -0.00034284       0.00031140       0.00529291       0.33049042       0.30144464      -0.14224112       0.00001851       0.14597954       0.29401296      -0.00122602       0.06609852       0.22902164      -0.33144970      -0.42846504       0.19563930       0.32291416       0.16695705      -0.20648541      -0.00310216      -0.12526894      -0.25148834       0.11390379      -0.04893748      -0.05583768       0.02928304      -0.02825802       0.17072241       0.01709254       0.13675795       0.52257700       0.02547820       0.17959664       0.25745183      -0.07841264       0.31522388       0.38550855      -0.14121190       0.05070072      -0.16363940      -0.04805605      -0.03579474      -0.11822441       0.00976134       0.21206361       0.42914227      -0.17565940      -0.19621613      -0.13395962       0.16600512      -0.14369518       0.44155666       0.07967050      -0.47952786       0.21451575       0.34973461       0.13336122       0.09258862      -0.08421098      -0.43349874       0.00070846      -0.55431358      -0.38984771      -0.00286100      -0.58649641       0.03623756      -0.02438416       0.02272482      -0.00854844      -0.01311136      -0.02842101       0.00056053      -0.00061765      -0.00125577      -0.00397790      -0.00153243      -0.00534727
H       -1.26939538      -0.47481238       1.97956756      -0.20815514       0.23292093      -0.17014922       0.16417573      -0.34042301      -0.00033685       0.00068411      -0.00308609       0.33049047       0.30144516      -0.14224256       0.00001189       0.14597911       0.29396412      -0.00122987      -0.06699152      -0.22726670      -0.33144542       0.42846782      -0.19563030       0.32291032       0.16695760      -0.20648941       0.00310189       0.12527246       0.25149297       0.11389829       0.04893809       0.05583439       0.02928182      -0.02826016       0.17072002      -0.01709538       0.13675889       0.52257775      -0.02548751      -0.17959660      -0.25745009      -0.07840637      -0.31522619      -0.38551430      -0.14120133       0.05070619      -0.16363516       0.04805930      -0.03579436      -0.11822430      -0.00975910       0.21206524       0.42914480       0.17564945      -0.19621809      -0.13396397      -0.16599980       0.14369773      -0.44155360       0.07967560      -0.47953323       0.21451043      -0.34973000       0.13336138       0.09258813       0.08420716       0.43350766      -0.00071605      -0.55434701      -0.38981965      -0.00285274       0.58647844       0.03623783      -0.02438449      -0.02272585      -0.00854635      -0.01311103       0.02841927       0.00056066      -0.00061764       0.00125563      -0.00397751      -0.00153235       0.00534702
9
Properties=species:S:1:pos:R:3:xtb2_normal_mode_displacements_0:R:3:xtb2_normal_mode_displacements_1:R:3:xtb2_normal_mode_displacements_2:R:3:xtb2_normal_mode_displacements_3:R:3:xtb2_normal_mode_displacements_4:R:3:xtb2_normal_mode_displacements_5:R:3:xtb2_normal_mode_displacements_6:R:3:xtb2_normal_mode_displacements_7:R:3:xtb2_normal_mode_displacements_8:R:3:xtb2_normal_mode_displacements_9:R:3:xtb2_normal_mode_displacements_10:R:3:xtb2_normal_mode_displacements_11:R:3:xtb2_normal_mode_displacements_12:R:3:xtb2_normal_mode_displacements_13:R:3:xtb2_normal_mode_displacements_14:R:3:xtb2_normal_mode_displacements_15:R:3:xtb2_normal_mode_displacements_16:R:3:xtb2_normal_mode_displacements_17:R:3:xtb2_normal_mode_displacements_18:R:3:xtb2_normal_mode_displacements_19:R:3:xtb2_normal_mode_displacements_20:R:3:xtb2_normal_mode_displacements_21:R:3:xtb2_normal_mode_displacements_22:R:3:xtb2_normal_mode_displacements_23:R:3:xtb2_normal_mode_displacements_24:R:3:xtb2_normal_mode_displacements_25:R:3:xtb2_normal_mode_displacements_26:R:3 propene=T reference=T _ConfigSet_loc=" / 0 / 0" xtb2_normal_mode_frequencies="-0.0019461934127446617 -0.0012160035104524494 -9.93123452020089e-06 -1.3014229096056314e-06 2.01829311176581e-05 0.001182055215837519 0.020396585011163454 0.052646472270038644 0.0720661965517159 0.1107921441650487 0.11576844989559419 0.12116217101615684 0.12587386431539677 0.1301292403266887 0.14503383082407395 0.16000746051012865 0.17305063547571045 0.17607711388641958 0.183235233322014 0.184200200995007 0.21403806997450184 0.37170880543951323 0.3735009117214228 0.376824539972782 0.37858381524906215 0.3840148551557691 0.3873825460436433" pbc="F F F"
C       -0.00239137       0.01098247      -0.63909830      -0.00018484      -0.00006232      -0.14700365      -0.09212380      -0.03163889       0.00081388       0.00050246       0.00109785       0.33605481       0.30146046      -0.14226065       0.00001578       0.14025167       0.30087247      -0.00119299       0.00023600       0.00006442       0.10304089       0.00000042      -0.00000132      -0.09430485      -0.09701738       0.17667746      -0.00000038      -0.00000087      -0.00000076      -0.13912814       0.00000008       0.00000090       0.07919680       0.02104941       0.02966821       0.00000061      -0.03805961      -0.10937999       0.00000192      -0.00000012      -0.00000060       0.00351711      -0.00000039      -0.00000203      -0.13318641       0.01034389      -0.22655967       0.00000343       0.00440973       0.07800001      -0.00000119      -0.04011031       0.00509104      -0.00000001      -0.08035350      -0.03517561       0.00000065       0.00000006       0.00000011      -0.01181682       0.00207009       0.00179519      -0.00000008      -0.52029516      -0.07716670       0.00000223      -0.00000008      -0.00000001       0.00192081       0.00093338       0.00529737      -0.00000003      -0.01922576       0.02908937      -0.00000034       0.03965149      -0.06032606       0.00000069      -0.00279413      -0.00354144       0.00000005       0.00684677      -0.01257639       0.00000013
C        1.31687116       0.01630160      -1.22642932      -0.00018444       0.00049407       0.16225851      -0.09229575       0.24032147       0.00002729       0.00050246       0.00109289       0.33530478       0.30146107      -0.14226385       0.00001538       0.14024844       0.30695895      -0.00119132       0.00023668      -0.00065616       0.19773506       0.00000082      -0.00000001       0.06913106      -0.10338774      -0.13436733       0.00000243      -0.00000062      -0.00000078       0.05006226      -0.00000048      -0.00000321      -0.15622235       0.02603792       0.10545320      -0.00000324      -0.11657114      -0.05848917       0.00000053      -0.00000070       0.00000034       0.03113218      -0.00000031      -0.00000060      -0.03415752      -0.00174871       0.09787693      -0.00000182       0.07372617      -0.06808843       0.00000095      -0.00961938      -0.00573576       0.00000012      -0.03655727       0.01011078      -0.00000011       0.00000001      -0.00000009      -0.00100521       0.02851820      -0.00007918      -0.00000005       0.46282307       0.00614317      -0.00000123       0.00000003       0.00000000       0.00022002      -0.00109131       0.00058150       0.00000000       0.00036708      -0.00042689       0.00000001      -0.00315517       0.01095426      -0.00000016       0.06134740      -0.02404248       0.00000021      -0.01797284      -0.09123604       0.00000138
H       -0.54671525       0.94678018      -0.55356949      -0.00057720      -0.00029473      -0.52278016      -0.28517891      -0.14391174       0.00268754       0.00050597       0.00109994       0.34095234       0.30146798      -0.14225445       0.00001672       0.13592192       0.29835260      -0.00116794       0.00074992       0.00036575       0.30808101       0.00000137      -0.00000242      -0.24110632      -0.06379115       0.18204692      -0.00000890       0.00000057       0.00000595       0.37562491       0.00000247      -0.00000208      -0.29747072      -0.28749309      -0.14771481       0.00000010      -0.24737010      -0.23404283       0.00000714      -0.00000213      -0.00000894      -0.62138682       0.00000082       0.00000566       0.47327106      -0.18966448      -0.32053687       0.00000252      -0.83076652      -0.41407775       0.00000666      -0.05110253      -0.00069595      -0.00000027       0.09153297       0.06641310      -0.00000098      -0.00000014       0.00000042       0.03009094      -0.02893096      -0.01630472      -0.00000006       0.09341611       0.32206185      -0.00000491      -0.00000001       0.00000001      -0.00098587       0.03079063      -0.05370249       0.00000054       0.22840772      -0.39451688       0.00000451      -0.44272279       0.75396366      -0.00000866      -0.01545228       0.03002717      -0.00000033      -0.05873820       0.10694769      -0.00000121
H        1.88905162       0.92611911      -0.85692732      -0.00056703       0.00073225       0.05450902      -0.28056468       0.35838396       0.00119407       0.00050595       0.00109076       0.33947353       0.30145500      -0.14225979       0.00001596       0.13604797       0.30959084      -0.00116561       0.00073719      -0.00096564       0.47690998       0.00000128      -0.00000084       0.03668975       0.23220889      -0.34684761      -0.00000078       0.00000504       0.00000419       0.59610778      -0.00000412       0.00001505       0.83068971       0.52058993      -0.22168509       0.00000934      -0.31916403       0.06610723      -0.00000275      -0.00000050       0.00000307       0.21615231       0.00000030       0.00000279       0.20483697       0.31488038      -0.13019483       0.00000036      -0.04121456       0.02269696       0.00000009       0.28728469      -0.17396768       0.00000185       0.54988296      -0.33291287       0.00000335      -0.00000080       0.00000049       0.00539027      -0.09119498       0.06857005      -0.00000064      -0.08357487       0.36277264      -0.00000453       0.00000000      -0.00000001      -0.00243314      -0.00149107      -0.00250474      -0.00000001       0.01480606       0.02224586      -0.00000033      -0.05262717      -0.07570769       0.00000120      -0.24292805      -0.44209991       0.00000693       0.46647478       0.72342613      -0.00001153
C       -0.84505954      -1.22010460       1.73316279       0.00032843      -0.00041438      -0.02071977       0.16106191      -0.20620780      -0.00070711       0.00049781       0.00110099       0.33041712       0.30145177      -0.14225113       0.00001502       0.14592482       0.29696487      -0.00122747      -0.00043924       0.00052502      -0.27943326      -0.00000117       0.00000102       0.00809838       0.15731822       0.01686223      -0.00000178       0.00000104       0.00000107       0.01404126      -0.00000038       0.00000047      -0.01146581       0.00690840      -0.08751194       0.00000088       0.20297140       0.10921681      -0.00000283       0.00000136       0.00000140       0.07089068       0.00000070       0.00000192       0.12458419      -0.03531808       0.16738018      -0.00000206      -0.02309628       0.03310871      -0.00000025      -0.06499949      -0.09294416       0.00000141       0.06783537       0.05274920      -0.00000105      -0.00000068      -0.00000080      -0.06645431       0.03845747      -0.05414837       0.00000008       0.05593032       0.03714399      -0.00000045      -0.00000078       0.00000075       0.08740008       0.06167647      -0.00148734       0.00000143       0.03558923      -0.05412236       0.00000017       0.02400263      -0.02976827       0.00000020       0.00088645      -0.00177144       0.00000002       0.00227723      -0.00180065       0.00000002
H        1.88511805      -0.90333683       0.00162703       0.00020082       0.00073673       0.53811572       0.09703735       0.35719953      -0.00182844       0.00049894       0.00109065       0.33046286       0.30146477      -0.14226034       0.00001445       0.14447025       0.30956370      -0.00121576      -0.00026638      -0.00096933      -0.00090119       0.00000059       0.00000194       0.23307647      -0.43632557      -0.34156017       0.00001489      -0.00000609      -0.00001150      -0.50700554       0.00000705       0.00000920       0.41959693      -0.47236960      -0.22168739       0.00001006      -0.01626530       0.01577872       0.00000648      -0.00000231      -0.00000855      -0.58216990       0.00000015       0.00000447       0.33735421      -0.36656492      -0.15534445       0.00000434       0.28381900       0.07238065      -0.00000267       0.30953970       0.17558235      -0.00000331       0.50221862       0.31278762      -0.00000532      -0.00000051      -0.00000025       0.00785570      -0.09464722      -0.07243036       0.00000109      -0.13273208      -0.38242244       0.00000535       0.00000005      -0.00000006       0.00115822      -0.00088359      -0.00031925       0.00000002      -0.00615041       0.00178240      -0.00000004       0.05555510      -0.08145464       0.00000104      -0.43687674       0.74057729      -0.00000962      -0.27468565       0.39782529      -0.00000513
H       -0.23231571      -2.11452679       0.83733942       0.00070593      -0.00015543       0.36305873       0.34619601      -0.07958179      -0.00255800       0.00049435       0.00109861       0.32599045       0.30143826      -0.14225807       0.00001411       0.15005919       0.29979053      -0.00125224      -0.00093261       0.00018720      -0.46600924      -0.00000689      -0.00000385      -0.46925614       0.44746140       0.21413364      -0.00000775       0.00000232       0.00000233       0.20154231       0.00000334       0.00000303       0.04307107      -0.34761455      -0.31773411       0.00000426      -0.26677602      -0.19412992       0.00000299      -0.00000146      -0.00000095      -0.11340080       0.00000100       0.00000126      -0.22354306       0.45836507       0.47221295      -0.00000522       0.00391538       0.04282083      -0.00000048       0.39725168       0.25599656      -0.00000634      -0.16645193      -0.10825259       0.00000369       0.00000621       0.00000551       0.74196506       0.35108926       0.21592322      -0.00000443      -0.12548377      -0.08390090       0.00000140       0.00000081      -0.00000118       0.04397779       0.01821361       0.00991341       0.00000069      -0.50889552       0.72263145      -0.00000125      -0.26399890       0.37243573      -0.00000055      -0.01413043       0.02252081      -0.00000005      -0.01965513       0.03332267      -0.00000006
H       -1.61058899      -1.64086378      -0.28356745       0.20882005      -0.23428890      -0.17014915       0.16311940      -0.33752247      -0.00034284       0.00031140       0.00529291       0.33049042       0.30144464      -0.14224112       0.00001851       0.14597954       0.29401296      -0.00122602       0.06609852       0.22902164      -0.33144970      -0.42846504       0.19563930       0.32291416       0.16695705      -0.20648541      -0.00310216      -0.12526894      -0.25148834       0.11390379      -0.04893748      -0.05583768       0.02928304      -0.02825802       0.17072241       0.01709254       0.13675795       0.52257700       0.02547820       0.17959664       0.25745183      -0.07841264       0.31522388       0.38550855      -0.14121190       0.05070072      -0.16363940      -0.04805605      -0.03579474      -0.11822441       0.00976134       0.21206361       0.42914227      -0.17565940      -0.19621613      -0.13395962       0.16600512      -0.14369518       0.44155666       0.07967050      -0.47952786       0.21451575       0.34973461       0.13336122       0.09258862      -0.08421098      -0.43349874       0.00070846      -0.55431358      -0.38984771      -0.00286100      -0.58649641       0.03623756      -0.02438416       0.02272482      -0.00854844      -0.01311136      -0.02842101       0.00056053      -0.00061765      -0.00125577      -0.00397790      -0.00153243      -0.00534727
H       -1.37144005      -0.82099582       1.47469413      -0.20815514       0.23292093      -0.17014922       0.16417573      -0.34042301      -0.00033685       0.00068411      -0.00308609       0.33049047       0.30144516      -0.14224256       0.00001189       0.14597911       0.29396412      -0.00122987      -0.06699152      -0.22726670      -0.33144542       0.42846782      -0.19563030       0.32291032       0.16695760      -0.20648941       0.00310189       0.12527246       0.25149297       0.11389829       0.04893809       0.05583439       0.02928182      -0.02826016       0.17072002      -0.01709538       0.13675889       0.52257775      -0.02548751      -0.17959660      -0.25745009      -0.07840637      -0.31522619      -0.38551430      -0.14120133       0.05070619      -0.16363516       0.04805930      -0.03579436      -0.11822430      -0.00975910       0.21206524       0.42914480       0.17564945      -0.19621809      -0.13396397      -0.16599980       0.14369773      -0.44155360       0.07967560      -0.47953323       0.21451043      -0.34973000       0.13336138       0.09258813       0.08420716       0.43350766      -0.00071605      -0.55434701      -0.38981965      -0.00285274       0.58647844       0.03623783      -0.02438449      -0.02272585      -0.00854635      -0.01311103       0.02841927       0.00056066      -0.00061764       0.00125563      -0.00397751      -0.00153235       0.00534702
