6
Properties=species:S:1:pos:R:3:xtb2_normal_mode_displacements_0:R:3:xtb2_normal_mode_displacements_1:R:3:xtb2_normal_mode_displacements_2:R:3:xtb2_normal_mode_displacements_3:R:3:xtb2_normal_mode_displacements_4:R:3:xtb2_normal_mode_displacements_5:R:3:xtb2_normal_mode_displacements_6:R:3:xtb2_normal_mode_displacements_7:R:3:xtb2_normal_mode_displacements_8:R:3:xtb2_normal_mode_displacements_9:R:3:xtb2_normal_mode_displacements_10:R:3:xtb2_normal_mode_displacements_11:R:3:xtb2_normal_mode_displacements_12:R:3:xtb2_normal_mode_displacements_13:R:3:xtb2_normal_mode_displacements_14:R:3:xtb2_normal_mode_displacements_15:R:3:xtb2_normal_mode_displacements_16:R:3:xtb2_normal_mode_displacements_17:R:3 ethene=T reference=T _ConfigSet_loc=" / 0 / 0" xtb2_normal_mode_frequencies="-0.020338645777405087 -2.2322407706243487e-06 -2.770149485445612e-07 0.044149902106740975 0.04962620440360888 0.05676578890631652 0.09825972483008971 0.1042252785527834 0.1153309027407552 0.12329166254388611 0.13136947406517283 0.1728069189043374 0.17600401187829592 0.2113825826396453 0.38392253460095827 0.3840101182474789 0.38796402875830654 0.3889069169375928" pbc="F F F"
C        0.01652041       0.00000000       0.00000000       0.00000000       0.00000000      -0.27928801      -0.00000157       0.40825744       0.00000000       0.40824924       0.00000157       0.00000000       0.00000000      -0.00000000       0.38018306      -0.00000000       0.00000000      -0.00000000      -0.00000000       0.27408328      -0.00000000       0.00000000       0.00000000      -0.13547183      -0.00000000       0.04081874       0.00000000       0.00000000      -0.00000000       0.09226575      -0.00000000      -0.10530482      -0.00000000      -0.00000000      -0.00000000       0.00000000      -0.05724177      -0.00000000       0.00000000      -0.06936713      -0.00000000       0.00000000       0.42814951      -0.00000000       0.00000000      -0.04870671       0.00000000       0.00000000      -0.04171457       0.00000000       0.00000000      -0.00000000       0.06996833      -0.00000000      -0.00000000      -0.07132376       0.00000000
C        1.33288160      -0.00000000       0.00000000       0.00000000       0.00000000      -0.27928802      -0.00000157       0.40825747       0.00000000       0.40824924       0.00000157       0.00000000       0.00000000      -0.00000000      -0.38018305      -0.00000000      -0.00000000       0.00000000       0.00000000      -0.27408327      -0.00000000       0.00000000       0.00000000      -0.13547182       0.00000000       0.04081866       0.00000000       0.00000000       0.00000000      -0.09226575       0.00000000       0.10530484       0.00000000       0.00000000       0.00000000      -0.00000000       0.05724138       0.00000000      -0.00000000      -0.06936755      -0.00000000      -0.00000000      -0.42814945      -0.00000000      -0.00000000       0.04870735      -0.00000000      -0.00000000      -0.04171381       0.00000000       0.00000000       0.00000000       0.06996710       0.00000000       0.00000000       0.07132499       0.00000000
H       -0.55464109       0.91401152       0.00000000       0.00000000       0.00000000      -0.45934639      -0.00002030       0.40824369       0.00000000       0.40824781       0.00000138       0.00000000       0.00000000      -0.00000000       0.42158088       0.00000000       0.00000000      -0.49999997       0.19412239       0.41803791       0.00000000      -0.00000000      -0.00000000       0.49073790      -0.43590294      -0.24321946      -0.00000000      -0.00000000      -0.00000000      -0.49572524       0.45139876       0.20172851      -0.00000000       0.00000000       0.00000000       0.50000003      -0.44737588      -0.21957946       0.00000000       0.41328217       0.27711609       0.00000000      -0.14438024      -0.37080795       0.00000000       0.24920820      -0.43209399       0.00000000       0.24852895      -0.43285925      -0.00000000       0.27163054      -0.41686138       0.00000000      -0.28220283       0.40965067      -0.00000000
H        1.90404291      -0.91401163       0.00000000       0.00000000       0.00000000      -0.45934638      -0.00002029       0.40824372       0.00000000       0.40824781       0.00000138       0.00000000      -0.00000000      -0.00000000      -0.42158084      -0.00000000      -0.00000000      -0.50000003      -0.19412242      -0.41803786       0.00000000      -0.00000000      -0.00000000       0.49073791      -0.43590268      -0.24321926      -0.00000000      -0.00000000      -0.00000000       0.49572525      -0.45139917      -0.20172865       0.00000000      -0.00000000      -0.00000000      -0.49999997       0.44737823       0.21958097       0.00000000       0.41327963       0.27711484       0.00000000       0.14437992       0.37080760      -0.00000000      -0.24921201       0.43210074       0.00000000       0.24852508      -0.43285267      -0.00000000       0.27162556      -0.41685431      -0.00000000       0.28220749      -0.40965798       0.00000000
H        1.90404291       0.91401163       0.00000000       0.00000000       0.00000000      -0.45934638       0.00001715       0.40824372      -0.00000000       0.40824781       0.00000176       0.00000000       0.00000000      -0.00000000      -0.42158084       0.00000000      -0.00000000       0.50000003       0.19412242      -0.41803786      -0.00000000       0.00000000      -0.00000000       0.49073791       0.43590268      -0.24321926      -0.00000000       0.00000000      -0.00000000       0.49572525       0.45139917      -0.20172865      -0.00000000       0.00000000       0.00000000       0.49999997       0.44737823      -0.21958097      -0.00000000       0.41327963      -0.27711484       0.00000000       0.14437992      -0.37080760       0.00000000      -0.24921201      -0.43210074       0.00000000       0.24852508       0.43285267      -0.00000000      -0.27162556      -0.41685431       0.00000000      -0.28220749      -0.40965798      -0.00000000
H       -0.55464109      -0.91401152       0.00000000       0.00000000       0.00000000      -0.45934639       0.00001716       0.40824369       0.00000000       0.40824781       0.00000176       0.00000000       0.00000000      -0.00000000       0.42158088      -0.00000000       0.00000000       0.49999997      -0.19412239       0.41803791      -0.00000000       0.00000000      -0.00000000       0.49073790       0.43590294      -0.24321946      -0.00000000       0.00000000      -0.00000000      -0.49572524      -0.45139876       0.20172851       0.00000000      -0.00000000       0.00000000      -0.50000003      -0.44737588       0.21957946       0.00000000       0.41328217      -0.27711609      -0.00000000      -0.14438024       0.37080795      -0.00000000       0.24920820       0.43209399      -0.00000000       0.24852895       0.43285925      -0.00000000      -0.27163054      -0.41686138      -0.00000000       0.28220283       0.40965067       0.00000000
6
Properties=species:S:1:pos:R:3:xtb2_normal_mode_displacements_0:R:3:xtb2_normal_mode_displacements_1:R:3:xtb2_normal_mode_displacements_2:R:3:xtb2_normal_mode_displacements_3:R:3:xtb2_normal_mode_displacements_4:R:3:xtb2_normal_mode_displacements_5:R:3:xtb2_normal_mode_displacements_6:R:3:xtb2_normal_mode_displacements_7:R:3:xtb2_normal_mode_displacements_8:R:3:xtb2_normal_mode_displacements_9:R:3:xtb2_normal_mode_displacements_10:R:3:xtb2_normal_mode_displacements_11:R:3:xtb2_normal_mode_displacements_12:R:3:xtb2_normal_mode_displacements_13:R:3:xtb2_normal_mode_displacements_14:R:3:xtb2_normal_mode_displacements_15:R:3:xtb2_normal_mode_displacements_16:R:3:xtb2_normal_mode_displacements_17:R:3 ethene=T reference=T _ConfigSet_loc=" / 0 / 0" xtb2_normal_mode_frequencies="-0.020338645777405087 -2.2322407706243487e-06 -2.770149485445612e-07 0.044149902106740975 0.04962620440360888 0.05676578890631652 0.09825972483008971 0.1042252785527834 0.1153309027407552 0.12329166254388611 0.13136947406517283 0.1728069189043374 0.17600401187829592 0.2113825826396453 0.38392253460095827 0.3840101182474789 0.38796402875830654 0.3889069169375928" pbc="F F F"
C       -0.00024226       0.00000000       0.00000000       0.00000000       0.00000000      -0.27928801      -0.00000157       0.40825744       0.00000000       0.40824924       0.00000157       0.00000000       0.00000000      -0.00000000       0.38018306      -0.00000000       0.00000000      -0.00000000      -0.00000000       0.27408328      -0.00000000       0.00000000       0.00000000      -0.13547183      -0.00000000       0.04081874       0.00000000       0.00000000      -0.00000000       0.09226575      -0.00000000      -0.10530482      -0.00000000      -0.00000000      -0.00000000       0.00000000      -0.05724177      -0.00000000       0.00000000      -0.06936713      -0.00000000       0.00000000       0.42814951      -0.00000000       0.00000000      -0.04870671       0.00000000       0.00000000      -0.04171457       0.00000000       0.00000000      -0.00000000       0.06996833      -0.00000000      -0.00000000      -0.07132376       0.00000000
C        1.34964449      -0.00000000       0.00000000       0.00000000       0.00000000      -0.27928802      -0.00000157       0.40825747       0.00000000       0.40824924       0.00000157       0.00000000       0.00000000      -0.00000000      -0.38018305      -0.00000000      -0.00000000       0.00000000       0.00000000      -0.27408327      -0.00000000       0.00000000       0.00000000      -0.13547182       0.00000000       0.04081866       0.00000000       0.00000000       0.00000000      -0.09226575       0.00000000       0.10530484       0.00000000       0.00000000       0.00000000      -0.00000000       0.05724138       0.00000000      -0.00000000      -0.06936755      -0.00000000      -0.00000000      -0.42814945      -0.00000000      -0.00000000       0.04870735      -0.00000000      -0.00000000      -0.04171381       0.00000000       0.00000000       0.00000000       0.06996710       0.00000000       0.00000000       0.07132499       0.00000000
H       -0.52979503       0.87093175       0.00000000       0.00000000       0.00000000      -0.45934639      -0.00002030       0.40824369       0.00000000       0.40824781       0.00000138       0.00000000       0.00000000      -0.00000000       0.42158088       0.00000000       0.00000000      -0.49999997       0.19412239       0.41803791       0.00000000      -0.00000000      -0.00000000       0.49073790      -0.43590294      -0.24321946      -0.00000000      -0.00000000      -0.00000000      -0.49572524       0.45139876       0.20172851      -0.00000000       0.00000000       0.00000000       0.50000003      -0.44737588      -0.21957946       0.00000000       0.41328217       0.27711609       0.00000000      -0.14438024      -0.37080795       0.00000000       0.24920820      -0.43209399       0.00000000       0.24852895      -0.43285925      -0.00000000       0.27163054      -0.41686138       0.00000000      -0.28220283       0.40965067      -0.00000000
H        1.87919647      -0.87093119       0.00000000       0.00000000       0.00000000      -0.45934638      -0.00002029       0.40824372       0.00000000       0.40824781       0.00000138       0.00000000      -0.00000000      -0.00000000      -0.42158084      -0.00000000      -0.00000000      -0.50000003      -0.19412242      -0.41803786       0.00000000      -0.00000000      -0.00000000       0.49073791      -0.43590268      -0.24321926      -0.00000000      -0.00000000      -0.00000000       0.49572525      -0.45139917      -0.20172865       0.00000000      -0.00000000      -0.00000000      -0.49999997       0.44737823       0.21958097       0.00000000       0.41327963       0.27711484       0.00000000       0.14437992       0.37080760      -0.00000000      -0.24921201       0.43210074       0.00000000       0.24852508      -0.43285267      -0.00000000       0.27162556      -0.41685431      -0.00000000       0.28220749      -0.40965798       0.00000000
H        1.87919647       0.87093119       0.00000000       0.00000000       0.00000000      -0.45934638       0.00001715       0.40824372      -0.00000000       0.40824781       0.00000176       0.00000000       0.00000000      -0.00000000      -0.42158084       0.00000000      -0.00000000       0.50000003       0.19412242      -0.41803786      -0.00000000       0.00000000      -0.00000000       0.49073791       0.43590268      -0.24321926      -0.00000000       0.00000000      -0.00000000       0.49572525       0.45139917      -0.20172865      -0.00000000       0.00000000       0.00000000       0.49999997       0.44737823      -0.21958097      -0.00000000       0.41327963      -0.27711484       0.00000000       0.14437992      -0.37080760       0.00000000      -0.24921201      -0.43210074       0.00000000       0.24852508       0.43285267      -0.00000000      -0.27162556      -0.41685431       0.00000000      -0.28220749      -0.40965798      -0.00000000
H       -0.52979503      -0.87093175       0.00000000       0.00000000       0.00000000      -0.45934639       0.00001716       0.40824369       0.00000000       0.40824781       0.00000176       0.00000000       0.00000000      -0.00000000       0.42158088      -0.00000000       0.00000000       0.49999997      -0.19412239       0.41803791      -0.00000000       0.00000000      -0.00000000       0.49073790       0.43590294      -0.24321946      -0.00000000       0.00000000      -0.00000000      -0.49572524      -0.45139876       0.20172851       0.00000000      -0.00000000       0.00000000      -0.50000003      -0.44737588       0.21957946       0.00000000       0.41328217      -0.27711609      -0.00000000      -0.14438024       0.37080795      -0.00000000       0.24920820       0.43209399      -0.00000000       0.24852895       0.43285925      -0.00000000      -0.27163054      -0.41686138      -0.00000000       0.28220283       0.40965067       0.00000000
6
Properties=species:S:1:pos:R:3:xtb2_normal_mode_displacements_0:R:3:xtb2_normal_mode_displacements_1:R:3:xtb2_normal_mode_displacements_2:R:3:xtb2_normal_mode_displacements_3:R:3:xtb2_normal_mode_displacements_4:R:3:xtb2_normal_mode_displacements_5:R:3:xtb2_normal_mode_displacements_6:R:3:xtb2_normal_mode_displacements_7:R:3:xtb2_normal_mode_displacements_8:R:3:xtb2_normal_mode_displacements_9:R:3:xtb2_normal_mode_displacements_10:R:3:xtb2_normal_mode_displacements_11:R:3:xtb2_normal_mode_displacements_12:R:3:xtb2_normal_mode_displacements_13:R:3:xtb2_normal_mode_displacements_14:R:3:xtb2_normal_mode_displacements_15:R:3:xtb2_normal_mode_displacements_16:R:3:xtb2_normal_mode_displacements_17:R:3 ethene=T reference=T _ConfigSet_loc=" / 0 / 0" xtb2_normal_mode_frequencies="-0.020338645777405087 -2.2322407706243487e-06 -2.770149485445612e-07 0.044149902106740975 0.04962620440360888 0.05676578890631652 0.09825972483008971 0.1042252785527834 0.1153309027407552 0.12329166254388611 0.13136947406517283 0.1728069189043374 0.17600401187829592 0.2113825826396453 0.38392253460095827 0.3840101182474789 0.38796402875830654 0.3889069169375928" pbc="F F F"
C       -0.01445297       0.00000000       0.00000000       0.00000000       0.00000000      -0.27928801      -0.00000157       0.40825744       0.00000000       0.40824924       0.00000157       0.00000000       0.00000000      -0.00000000       0.38018306      -0.00000000       0.00000000      -0.00000000      -0.00000000       0.27408328      -0.00000000       0.00000000       0.00000000      -0.13547183      -0.00000000       0.04081874       0.00000000       0.00000000      -0.00000000       0.09226575      -0.00000000      -0.10530482      -0.00000000      -0.00000000      -0.00000000       0.00000000      -0.05724177      -0.00000000       0.00000000      -0.06936713      -0.00000000       0.00000000       0.42814951      -0.00000000       0.00000000      -0.04870671       0.00000000       0.00000000      -0.04171457       0.00000000       0.00000000      -0.00000000       0.06996833      -0.00000000      -0.00000000      -0.07132376       0.00000000
C        1.36385539      -0.00000000       0.00000000       0.00000000       0.00000000      -0.27928802      -0.00000157       0.40825747       0.00000000       0.40824924       0.00000157       0.00000000       0.00000000      -0.00000000      -0.38018305      -0.00000000      -0.00000000       0.00000000       0.00000000      -0.27408327      -0.00000000       0.00000000       0.00000000      -0.13547182       0.00000000       0.04081866       0.00000000       0.00000000       0.00000000      -0.09226575       0.00000000       0.10530484       0.00000000       0.00000000       0.00000000      -0.00000000       0.05724138       0.00000000      -0.00000000      -0.06936755      -0.00000000      -0.00000000      -0.42814945      -0.00000000      -0.00000000       0.04870735      -0.00000000      -0.00000000      -0.04171381       0.00000000       0.00000000       0.00000000       0.06996710       0.00000000       0.00000000       0.07132499       0.00000000
H       -0.50873157       0.83441049       0.00000000       0.00000000       0.00000000      -0.45934639      -0.00002030       0.40824369       0.00000000       0.40824781       0.00000138       0.00000000       0.00000000      -0.00000000       0.42158088       0.00000000       0.00000000      -0.49999997       0.19412239       0.41803791       0.00000000      -0.00000000      -0.00000000       0.49073790      -0.43590294      -0.24321946      -0.00000000      -0.00000000      -0.00000000      -0.49572524       0.45139876       0.20172851      -0.00000000       0.00000000       0.00000000       0.50000003      -0.44737588      -0.21957946       0.00000000       0.41328217       0.27711609       0.00000000      -0.14438024      -0.37080795       0.00000000       0.24920820      -0.43209399       0.00000000       0.24852895      -0.43285925      -0.00000000       0.27163054      -0.41686138       0.00000000      -0.28220283       0.40965067      -0.00000000
H        1.85813268      -0.83440936       0.00000000       0.00000000       0.00000000      -0.45934638      -0.00002029       0.40824372       0.00000000       0.40824781       0.00000138       0.00000000      -0.00000000      -0.00000000      -0.42158084      -0.00000000      -0.00000000      -0.50000003      -0.19412242      -0.41803786       0.00000000      -0.00000000      -0.00000000       0.49073791      -0.43590268      -0.24321926      -0.00000000      -0.00000000      -0.00000000       0.49572525      -0.45139917      -0.20172865       0.00000000      -0.00000000      -0.00000000      -0.49999997       0.44737823       0.21958097       0.00000000       0.41327963       0.27711484       0.00000000       0.14437992       0.37080760      -0.00000000      -0.24921201       0.43210074       0.00000000       0.24852508      -0.43285267      -0.00000000       0.27162556      -0.41685431      -0.00000000       0.28220749      -0.40965798       0.00000000
H        1.85813268       0.83440936       0.00000000       0.00000000       0.00000000      -0.45934638       0.00001715       0.40824372      -0.00000000       0.40824781       0.00000176       0.00000000       0.00000000      -0.00000000      -0.42158084       0.00000000      -0.00000000       0.50000003       0.19412242      -0.41803786      -0.00000000       0.00000000      -0.00000000       0.49073791       0.43590268      -0.24321926      -0.00000000       0.00000000      -0.00000000       0.49572525       0.45139917      -0.20172865      -0.00000000       0.00000000       0.00000000       0.49999997       0.44737823      -0.21958097      -0.00000000       0.41327963      -0.27711484       0.00000000       0.14437992      -0.37080760       0.00000000      -0.24921201      -0.43210074       0.00000000       0.24852508       0.43285267      -0.00000000      -0.27162556      -0.41685431       0.00000000      -0.28220749      -0.40965798      -0.00000000
H       -0.50873157      -0.83441049       0.00000000       0.00000000       0.00000000      -0.45934639       0.00001716       0.40824369       0.00000000       0.40824781       0.00000176       0.00000000       0.00000000      -0.00000000       0.42158088      -0.00000000       0.00000000       0.49999997      -0.19412239       0.41803791      -0.00000000       0.00000000      -0.00000000       0.49073790       0.43590294      -0.24321946      -0.00000000       0.00000000      -0.00000000      -0.49572524      -0.45139876       0.20172851       0.00000000      -0.00000000       0.00000000      -0.50000003      -0.44737588       0.21957946       0.00000000       0.41328217      -0.27711609      -0.00000000      -0.14438024       0.37080795      -0.00000000       0.24920820       0.43209399      -0.00000000       0.24852895       0.43285925      -0.00000000      -0.27163054      -0.41686138      -0.00000000       0.28220283       0.40965067       0.00000000
6
Properties=species:S:1:pos:R:3:xtb2_normal_mode_displacements_0:R:3:xtb2_normal_mode_displacements_1:R:3:xtb2_normal_mode_displacements_2:R:3:xtb2_normal_mode_displacements_3:R:3:xtb2_normal_mode_displacements_4:R:3:xtb2_normal_mode_displacements_5:R:3:xtb2_normal_mode_displacements_6:R:3:xtb2_normal_mode_displacements_7:R:3:xtb2_normal_mode_displacements_8:R:3:xtb2_normal_mode_displacements_9:R:3:xtb2_normal_mode_displacements_10:R:3:xtb2_normal_mode_displacements_11:R:3:xtb2_normal_mode_displacements_12:R:3:xtb2_normal_mode_displacements_13:R:3:xtb2_normal_mode_displacements_14:R:3:xtb2_normal_mode_displacements_15:R:3:xtb2_normal_mode_displacements_16:R:3:xtb2_normal_mode_displacements_17:R:3 ethene=T reference=T _ConfigSet_loc=" / 0 / 0" xtb2_normal_mode_frequencies="-0.020338645777405087 -2.2322407706243487e-06 -2.770149485445612e-07 0.044149902106740975 0.04962620440360888 0.05676578890631652 0.09825972483008971 0.1042252785527834 0.1153309027407552 0.12329166254388611 0.13136947406517283 0.1728069189043374 0.17600401187829592 0.2113825826396453 0.38392253460095827 0.3840101182474789 0.38796402875830654 0.3889069169375928" pbc="F F F"
C       -0.02394826       0.00000000       0.00000000       0.00000000       0.00000000      -0.27928801      -0.00000157       0.40825744       0.00000000       0.40824924       0.00000157       0.00000000       0.00000000      -0.00000000       0.38018306      -0.00000000       0.00000000      -0.00000000      -0.00000000       0.27408328      -0.00000000       0.00000000       0.00000000      -0.13547183      -0.00000000       0.04081874       0.00000000       0.00000000      -0.00000000       0.09226575      -0.00000000      -0.10530482      -0.00000000      -0.00000000      -0.00000000       0.00000000      -0.05724177      -0.00000000       0.00000000      -0.06936713      -0.00000000       0.00000000       0.42814951      -0.00000000       0.00000000      -0.04870671       0.00000000       0.00000000      -0.04171457       0.00000000       0.00000000      -0.00000000       0.06996833      -0.00000000      -0.00000000      -0.07132376       0.00000000
C        1.37335080      -0.00000000       0.00000000       0.00000000       0.00000000      -0.27928802      -0.00000157       0.40825747       0.00000000       0.40824924       0.00000157       0.00000000       0.00000000      -0.00000000      -0.38018305      -0.00000000      -0.00000000       0.00000000       0.00000000      -0.27408327      -0.00000000       0.00000000       0.00000000      -0.13547182       0.00000000       0.04081866       0.00000000       0.00000000       0.00000000      -0.09226575       0.00000000       0.10530484       0.00000000       0.00000000       0.00000000      -0.00000000       0.05724138       0.00000000      -0.00000000      -0.06936755      -0.00000000      -0.00000000      -0.42814945      -0.00000000      -0.00000000       0.04870735      -0.00000000      -0.00000000      -0.04171381       0.00000000       0.00000000       0.00000000       0.06996710       0.00000000       0.00000000       0.07132499       0.00000000
H       -0.49465741       0.81000776       0.00000000       0.00000000       0.00000000      -0.45934639      -0.00002030       0.40824369       0.00000000       0.40824781       0.00000138       0.00000000       0.00000000      -0.00000000       0.42158088       0.00000000       0.00000000      -0.49999997       0.19412239       0.41803791       0.00000000      -0.00000000      -0.00000000       0.49073790      -0.43590294      -0.24321946      -0.00000000      -0.00000000      -0.00000000      -0.49572524       0.45139876       0.20172851      -0.00000000       0.00000000       0.00000000       0.50000003      -0.44737588      -0.21957946       0.00000000       0.41328217       0.27711609       0.00000000      -0.14438024      -0.37080795       0.00000000       0.24920820      -0.43209399       0.00000000       0.24852895      -0.43285925      -0.00000000       0.27163054      -0.41686138       0.00000000      -0.28220283       0.40965067      -0.00000000
H        1.84405831      -0.81000625       0.00000000       0.00000000       0.00000000      -0.45934638      -0.00002029       0.40824372       0.00000000       0.40824781       0.00000138       0.00000000      -0.00000000      -0.00000000      -0.42158084      -0.00000000      -0.00000000      -0.50000003      -0.19412242      -0.41803786       0.00000000      -0.00000000      -0.00000000       0.49073791      -0.43590268      -0.24321926      -0.00000000      -0.00000000      -0.00000000       0.49572525      -0.45139917      -0.20172865       0.00000000      -0.00000000      -0.00000000      -0.49999997       0.44737823       0.21958097       0.00000000       0.41327963       0.27711484       0.00000000       0.14437992       0.37080760      -0.00000000      -0.24921201       0.43210074       0.00000000       0.24852508      -0.43285267      -0.00000000       0.27162556      -0.41685431      -0.00000000       0.28220749      -0.40965798       0.00000000
H        1.84405831       0.81000625       0.00000000       0.00000000       0.00000000      -0.45934638       0.00001715       0.40824372      -0.00000000       0.40824781       0.00000176       0.00000000       0.00000000      -0.00000000      -0.42158084       0.00000000      -0.00000000       0.50000003       0.19412242      -0.41803786      -0.00000000       0.00000000      -0.00000000       0.49073791       0.43590268      -0.24321926      -0.00000000       0.00000000      -0.00000000       0.49572525       0.45139917      -0.20172865      -0.00000000       0.00000000       0.00000000       0.49999997       0.44737823      -0.21958097      -0.00000000       0.41327963      -0.27711484       0.00000000       0.14437992      -0.37080760       0.00000000      -0.24921201      -0.43210074       0.00000000       0.24852508       0.43285267      -0.00000000      -0.27162556      -0.41685431       0.00000000      -0.28220749      -0.40965798      -0.00000000
H       -0.49465741      -0.81000776       0.00000000       0.00000000       0.00000000      -0.45934639       0.00001716       0.40824369       0.00000000       0.40824781       0.00000176       0.00000000       0.00000000      -0.00000000       0.42158088      -0.00000000       0.00000000       0.49999997      -0.19412239       0.41803791      -0.00000000       0.00000000      -0.00000000       0.49073790       0.43590294      -0.24321946      -0.00000000       0.00000000      -0.00000000      -0.49572524      -0.45139876       0.20172851       0.00000000      -0.00000000       0.00000000      -0.50000003      -0.44737588       0.21957946       0.00000000       0.41328217      -0.27711609      -0.00000000      -0.14438024       0.37080795      -0.00000000       0.24920820       0.43209399      -0.00000000       0.24852895       0.43285925      -0.00000000      -0.27163054      -0.41686138      -0.00000000       0.28220283       0.40965067       0.00000000
6
Properties=species:S:1:pos:R:3:xtb2_normal_mode_displacements_0:R:3:xtb2_normal_mode_displacements_1:R:3:xtb2_normal_mode_displacements_2:R:3:xtb2_normal_mode_displacements_3:R:3:xtb2_normal_mode_displacements_4:R:3:xtb2_normal_mode_displacements_5:R:3:xtb2_normal_mode_displacements_6:R:3:xtb2_normal_mode_displacements_7:R:3:xtb2_normal_mode_displacements_8:R:3:xtb2_normal_mode_displacements_9:R:3:xtb2_normal_mode_displacements_10:R:3:xtb2_normal_mode_displacements_11:R:3:xtb2_normal_mode_displacements_12:R:3:xtb2_normal_mode_displacements_13:R:3:xtb2_normal_mode_displacements_14:R:3:xtb2_normal_mode_displacements_15:R:3:xtb2_normal_mode_displacements_16:R:3:xtb2_normal_mode_displacements_17:R:3 ethene=T reference=T _ConfigSet_loc=" / 0 / 0" xtb2_normal_mode_frequencies="-0.020338645777405087 -2.2322407706243487e-06 -2.770149485445612e-07 0.044149902106740975 0.04962620440360888 0.05676578890631652 0.09825972483008971 0.1042252785527834 0.1153309027407552 0.12329166254388611 0.13136947406517283 0.1728069189043374 0.17600401187829592 0.2113825826396453 0.38392253460095827 0.3840101182474789 0.38796402875830654 0.3889069169375928" pbc="F F F"
C       -0.02728256       0.00000000       0.00000000       0.00000000       0.00000000      -0.27928801      -0.00000157       0.40825744       0.00000000       0.40824924       0.00000157       0.00000000       0.00000000      -0.00000000       0.38018306      -0.00000000       0.00000000      -0.00000000      -0.00000000       0.27408328      -0.00000000       0.00000000       0.00000000      -0.13547183      -0.00000000       0.04081874       0.00000000       0.00000000      -0.00000000       0.09226575      -0.00000000      -0.10530482      -0.00000000      -0.00000000      -0.00000000       0.00000000      -0.05724177      -0.00000000       0.00000000      -0.06936713      -0.00000000       0.00000000       0.42814951      -0.00000000       0.00000000      -0.04870671       0.00000000       0.00000000      -0.04171457       0.00000000       0.00000000      -0.00000000       0.06996833      -0.00000000      -0.00000000      -0.07132376       0.00000000
C        1.37668515      -0.00000000       0.00000000       0.00000000       0.00000000      -0.27928802      -0.00000157       0.40825747       0.00000000       0.40824924       0.00000157       0.00000000       0.00000000      -0.00000000      -0.38018305      -0.00000000      -0.00000000       0.00000000       0.00000000      -0.27408327      -0.00000000       0.00000000       0.00000000      -0.13547182       0.00000000       0.04081866       0.00000000       0.00000000       0.00000000      -0.09226575       0.00000000       0.10530484       0.00000000       0.00000000       0.00000000      -0.00000000       0.05724138       0.00000000      -0.00000000      -0.06936755      -0.00000000      -0.00000000      -0.42814945      -0.00000000      -0.00000000       0.04870735      -0.00000000      -0.00000000      -0.04171381       0.00000000       0.00000000       0.00000000       0.06996710       0.00000000       0.00000000       0.07132499       0.00000000
H       -0.48971522       0.80143866       0.00000000       0.00000000       0.00000000      -0.45934639      -0.00002030       0.40824369       0.00000000       0.40824781       0.00000138       0.00000000       0.00000000      -0.00000000       0.42158088       0.00000000       0.00000000      -0.49999997       0.19412239       0.41803791       0.00000000      -0.00000000      -0.00000000       0.49073790      -0.43590294      -0.24321946      -0.00000000      -0.00000000      -0.00000000      -0.49572524       0.45139876       0.20172851      -0.00000000       0.00000000       0.00000000       0.50000003      -0.44737588      -0.21957946       0.00000000       0.41328217       0.27711609       0.00000000      -0.14438024      -0.37080795       0.00000000       0.24920820      -0.43209399       0.00000000       0.24852895      -0.43285925      -0.00000000       0.27163054      -0.41686138       0.00000000      -0.28220283       0.40965067      -0.00000000
H        1.83911605      -0.80143701       0.00000000       0.00000000       0.00000000      -0.45934638      -0.00002029       0.40824372       0.00000000       0.40824781       0.00000138       0.00000000      -0.00000000      -0.00000000      -0.42158084      -0.00000000      -0.00000000      -0.50000003      -0.19412242      -0.41803786       0.00000000      -0.00000000      -0.00000000       0.49073791      -0.43590268      -0.24321926      -0.00000000      -0.00000000      -0.00000000       0.49572525      -0.45139917      -0.20172865       0.00000000      -0.00000000      -0.00000000      -0.49999997       0.44737823       0.21958097       0.00000000       0.41327963       0.27711484       0.00000000       0.14437992       0.37080760      -0.00000000      -0.24921201       0.43210074       0.00000000       0.24852508      -0.43285267      -0.00000000       0.27162556      -0.41685431      -0.00000000       0.28220749      -0.40965798       0.00000000
H        1.83911605       0.80143701       0.00000000       0.00000000       0.00000000      -0.45934638       0.00001715       0.40824372      -0.00000000       0.40824781       0.00000176       0.00000000       0.00000000      -0.00000000      -0.42158084       0.00000000      -0.00000000       0.50000003       0.19412242      -0.41803786      -0.00000000       0.00000000      -0.00000000       0.49073791       0.43590268      -0.24321926      -0.00000000       0.00000000      -0.00000000       0.49572525       0.45139917      -0.20172865      -0.00000000       0.00000000       0.00000000       0.49999997       0.44737823      -0.21958097      -0.00000000       0.41327963      -0.27711484       0.00000000       0.14437992      -0.37080760       0.00000000      -0.24921201      -0.43210074       0.00000000       0.24852508       0.43285267      -0.00000000      -0.27162556      -0.41685431       0.00000000      -0.28220749      -0.40965798      -0.00000000
H       -0.48971522      -0.80143866       0.00000000       0.00000000       0.00000000      -0.45934639       0.00001716       0.40824369       0.00000000       0.40824781       0.00000176       0.00000000       0.00000000      -0.00000000       0.42158088      -0.00000000       0.00000000       0.49999997      -0.19412239       0.41803791      -0.00000000       0.00000000      -0.00000000       0.49073790       0.43590294      -0.24321946      -0.00000000       0.00000000      -0.00000000      -0.49572524      -0.45139876       0.20172851       0.00000000      -0.00000000       0.00000000      -0.50000003      -0.44737588       0.21957946       0.00000000       0.41328217      -0.27711609      -0.00000000      -0.14438024       0.37080795      -0.00000000       0.24920820       0.43209399      -0.00000000       0.24852895       0.43285925      -0.00000000      -0.27163054      -0.41686138      -0.00000000       0.28220283       0.40965067       0.00000000
6
Properties=species:S:1:pos:R:3:xtb2_normal_mode_displacements_0:R:3:xtb2_normal_mode_displacements_1:R:3:xtb2_normal_mode_displacements_2:R:3:xtb2_normal_mode_displacements_3:R:3:xtb2_normal_mode_displacements_4:R:3:xtb2_normal_mode_displacements_5:R:3:xtb2_normal_mode_displacements_6:R:3:xtb2_normal_mode_displacements_7:R:3:xtb2_normal_mode_displacements_8:R:3:xtb2_normal_mode_displacements_9:R:3:xtb2_normal_mode_displacements_10:R:3:xtb2_normal_mode_displacements_11:R:3:xtb2_normal_mode_displacements_12:R:3:xtb2_normal_mode_displacements_13:R:3:xtb2_normal_mode_displacements_14:R:3:xtb2_normal_mode_displacements_15:R:3:xtb2_normal_mode_displacements_16:R:3:xtb2_normal_mode_displacements_17:R:3 ethene=T reference=T _ConfigSet_loc=" / 0 / 0" xtb2_normal_mode_frequencies="-0.020338645777405087 -2.2322407706243487e-06 -2.770149485445612e-07 0.044149902106740975 0.04962620440360888 0.05676578890631652 0.09825972483008971 0.1042252785527834 0.1153309027407552 0.12329166254388611 0.13136947406517283 0.1728069189043374 0.17600401187829592 0.2113825826396453 0.38392253460095827 0.3840101182474789 0.38796402875830654 0.3889069169375928" pbc="F F F"
C       -0.02394826       0.00000000       0.00000000       0.00000000       0.00000000      -0.27928801      -0.00000157       0.40825744       0.00000000       0.40824924       0.00000157       0.00000000       0.00000000      -0.00000000       0.38018306      -0.00000000       0.00000000      -0.00000000      -0.00000000       0.27408328      -0.00000000       0.00000000       0.00000000      -0.13547183      -0.00000000       0.04081874       0.00000000       0.00000000      -0.00000000       0.09226575      -0.00000000      -0.10530482      -0.00000000      -0.00000000      -0.00000000       0.00000000      -0.05724177      -0.00000000       0.00000000      -0.06936713      -0.00000000       0.00000000       0.42814951      -0.00000000       0.00000000      -0.04870671       0.00000000       0.00000000      -0.04171457       0.00000000       0.00000000      -0.00000000       0.06996833      -0.00000000      -0.00000000      -0.07132376       0.00000000
C        1.37335080      -0.00000000       0.00000000       0.00000000       0.00000000      -0.27928802      -0.00000157       0.40825747       0.00000000       0.40824924       0.00000157       0.00000000       0.00000000      -0.00000000      -0.38018305      -0.00000000      -0.00000000       0.00000000       0.00000000      -0.27408327      -0.00000000       0.00000000       0.00000000      -0.13547182       0.00000000       0.04081866       0.00000000       0.00000000       0.00000000      -0.09226575       0.00000000       0.10530484       0.00000000       0.00000000       0.00000000      -0.00000000       0.05724138       0.00000000      -0.00000000      -0.06936755      -0.00000000      -0.00000000      -0.42814945      -0.00000000      -0.00000000       0.04870735      -0.00000000      -0.00000000      -0.04171381       0.00000000       0.00000000       0.00000000       0.06996710       0.00000000       0.00000000       0.07132499       0.00000000
H       -0.49465741       0.81000776       0.00000000       0.00000000       0.00000000      -0.45934639      -0.00002030       0.40824369       0.00000000       0.40824781       0.00000138       0.00000000       0.00000000      -0.00000000       0.42158088       0.00000000       0.00000000      -0.49999997       0.19412239       0.41803791       0.00000000      -0.00000000      -0.00000000       0.49073790      -0.43590294      -0.24321946      -0.00000000      -0.00000000      -0.00000000      -0.49572524       0.45139876       0.20172851      -0.00000000       0.00000000       0.00000000       0.50000003      -0.44737588      -0.21957946       0.00000000       0.41328217       0.27711609       0.00000000      -0.14438024      -0.37080795       0.00000000       0.24920820      -0.43209399       0.00000000       0.24852895      -0.43285925      -0.00000000       0.27163054      -0.41686138       0.00000000      -0.28220283       0.40965067      -0.00000000
H        1.84405831      -0.81000625       0.00000000       0.00000000       0.00000000      -0.45934638      -0.00002029       0.40824372       0.00000000       0.40824781       0.00000138       0.00000000      -0.00000000      -0.00000000      -0.42158084      -0.00000000      -0.00000000      -0.50000003      -0.19412242      -0.41803786       0.00000000      -0.00000000      -0.00000000       0.49073791      -0.43590268      -0.24321926      -0.00000000      -0.00000000      -0.00000000       0.49572525      -0.45139917      -0.20172865       0.00000000      -0.00000000      -0.00000000      -0.49999997       0.44737823       0.21958097       0.00000000       0.41327963       0.27711484       0.00000000       0.14437992       0.37080760      -0.00000000      -0.24921201       0.43210074       0.00000000       0.24852508      -0.43285267      -0.00000000       0.27162556      -0.41685431      -0.00000000       0.28220749      -0.40965798       0.00000000
H        1.84405831       0.81000625       0.00000000       0.00000000       0.00000000      -0.45934638       0.00001715       0.40824372      -0.00000000       0.40824781       0.00000176       0.00000000       0.00000000      -0.00000000      -0.42158084       0.00000000      -0.00000000       0.50000003       0.19412242      -0.41803786      -0.00000000       0.00000000      -0.00000000       0.49073791       0.43590268      -0.24321926      -0.00000000       0.00000000      -0.00000000       0.49572525       0.45139917      -0.20172865      -0.00000000       0.00000000       0.00000000       0.49999997       0.44737823      -0.21958097      -0.00000000       0.41327963      -0.27711484       0.00000000       0.14437992      -0.37080760       0.00000000      -0.24921201      -0.43210074       0.00000000       0.24852508       0.43285267      -0.00000000      -0.27162556      -0.41685431       0.00000000      -0.28220749      -0.40965798      -0.00000000
H       -0.49465741      -0.81000776       0.00000000       0.00000000       0.00000000      -0.45934639       0.00001716       0.40824369       0.00000000       0.40824781       0.00000176       0.00000000       0.00000000      -0.00000000       0.42158088      -0.00000000       0.00000000       0.49999997      -0.19412239       0.41803791      -0.00000000       0.00000000      -0.00000000       0.49073790       0.43590294      -0.24321946      -0.00000000       0.00000000      -0.00000000      -0.49572524      -0.45139876       0.20172851       0.00000000      -0.00000000       0.00000000      -0.50000003      -0.44737588       0.21957946       0.00000000       0.41328217      -0.27711609      -0.00000000      -0.14438024       0.37080795      -0.00000000       0.24920820       0.43209399      -0.00000000       0.24852895       0.43285925      -0.00000000      -0.27163054      -0.41686138      -0.00000000       0.28220283       0.40965067       0.00000000
6
Properties=species:S:1:pos:R:3:xtb2_normal_mode_displacements_0:R:3:xtb2_normal_mode_displacements_1:R:3:xtb2_normal_mode_displacements_2:R:3:xtb2_normal_mode_displacements_3:R:3:xtb2_normal_mode_displacements_4:R:3:xtb2_normal_mode_displacements_5:R:3:xtb2_normal_mode_displacements_6:R:3:xtb2_normal_mode_displacements_7:R:3:xtb2_normal_mode_displacements_8:R:3:xtb2_normal_mode_displacements_9:R:3:xtb2_normal_mode_displacements_10:R:3:xtb2_normal_mode_displacements_11:R:3:xtb2_normal_mode_displacements_12:R:3:xtb2_normal_mode_displacements_13:R:3:xtb2_normal_mode_displacements_14:R:3:xtb2_normal_mode_displacements_15:R:3:xtb2_normal_mode_displacements_16:R:3:xtb2_normal_mode_displacements_17:R:3 ethene=T reference=T _ConfigSet_loc=" / 0 / 0" xtb2_normal_mode_frequencies="-0.020338645777405087 -2.2322407706243487e-06 -2.770149485445612e-07 0.044149902106740975 0.04962620440360888 0.05676578890631652 0.09825972483008971 0.1042252785527834 0.1153309027407552 0.12329166254388611 0.13136947406517283 0.1728069189043374 0.17600401187829592 0.2113825826396453 0.38392253460095827 0.3840101182474789 0.38796402875830654 0.3889069169375928" pbc="F F F"
C       -0.01445297       0.00000000       0.00000000       0.00000000       0.00000000      -0.27928801      -0.00000157       0.40825744       0.00000000       0.40824924       0.00000157       0.00000000       0.00000000      -0.00000000       0.38018306      -0.00000000       0.00000000      -0.00000000      -0.00000000       0.27408328      -0.00000000       0.00000000       0.00000000      -0.13547183      -0.00000000       0.04081874       0.00000000       0.00000000      -0.00000000       0.09226575      -0.00000000      -0.10530482      -0.00000000      -0.00000000      -0.00000000       0.00000000      -0.05724177      -0.00000000       0.00000000      -0.06936713      -0.00000000       0.00000000       0.42814951      -0.00000000       0.00000000      -0.04870671       0.00000000       0.00000000      -0.04171457       0.00000000       0.00000000      -0.00000000       0.06996833      -0.00000000      -0.00000000      -0.07132376       0.00000000
C        1.36385539      -0.00000000       0.00000000       0.00000000       0.00000000      -0.27928802      -0.00000157       0.40825747       0.00000000       0.40824924       0.00000157       0.00000000       0.00000000      -0.00000000      -0.38018305      -0.00000000      -0.00000000       0.00000000       0.00000000      -0.27408327      -0.00000000       0.00000000       0.00000000      -0.13547182       0.00000000       0.04081866       0.00000000       0.00000000       0.00000000      -0.09226575       0.00000000       0.10530484       0.00000000       0.00000000       0.00000000      -0.00000000       0.05724138       0.00000000      -0.00000000      -0.06936755      -0.00000000      -0.00000000      -0.42814945      -0.00000000      -0.00000000       0.04870735      -0.00000000      -0.00000000      -0.04171381       0.00000000       0.00000000       0.00000000       0.06996710       0.00000000       0.00000000       0.07132499       0.00000000
H       -0.50873157       0.83441049       0.00000000       0.00000000       0.00000000      -0.45934639      -0.00002030       0.40824369       0.00000000       0.40824781       0.00000138       0.00000000       0.00000000      -0.00000000       0.42158088       0.00000000       0.00000000      -0.49999997       0.19412239       0.41803791       0.00000000      -0.00000000      -0.00000000       0.49073790      -0.43590294      -0.24321946      -0.00000000      -0.00000000      -0.00000000      -0.49572524       0.45139876       0.20172851      -0.00000000       0.00000000       0.00000000       0.50000003      -0.44737588      -0.21957946       0.00000000       0.41328217       0.27711609       0.00000000      -0.14438024      -0.37080795       0.00000000       0.24920820      -0.43209399       0.00000000       0.24852895      -0.43285925      -0.00000000       0.27163054      -0.41686138       0.00000000      -0.28220283       0.40965067      -0.00000000
H        1.85813268      -0.83440936       0.00000000       0.00000000       0.00000000      -0.45934638      -0.00002029       0.40824372       0.00000000       0.40824781       0.00000138       0.00000000      -0.00000000      -0.00000000      -0.42158084      -0.00000000      -0.00000000      -0.50000003      -0.19412242      -0.41803786       0.00000000      -0.00000000      -0.00000000       0.49073791      -0.43590268      -0.24321926      -0.00000000      -0.00000000      -0.00000000       0.49572525      -0.45139917      -0.20172865       0.00000000      -0.00000000      -0.00000000      -0.49999997       0.44737823       0.21958097       0.00000000       0.41327963       0.27711484       0.00000000       0.14437992       0.37080760      -0.00000000      -0.24921201       0.43210074       0.00000000       0.24852508      -0.43285267      -0.00000000       0.27162556      -0.41685431      -0.00000000       0.28220749      -0.40965798       0.00000000
H        1.85813268       0.83440936       0.00000000       0.00000000       0.00000000      -0.45934638       0.00001715       0.40824372      -0.00000000       0.40824781       0.00000176       0.00000000       0.00000000      -0.00000000      -0.42158084       0.00000000      -0.00000000       0.50000003       0.19412242      -0.41803786      -0.00000000       0.00000000      -0.00000000       0.49073791       0.43590268      -0.24321926      -0.00000000       0.00000000      -0.00000000       0.49572525       0.45139917      -0.20172865      -0.00000000       0.00000000       0.00000000       0.49999997       0.44737823      -0.21958097      -0.00000000       0.41327963      -0.27711484       0.00000000       0.14437992      -0.37080760       0.00000000      -0.24921201      -0.43210074       0.00000000       0.24852508       0.43285267      -0.00000000      -0.27162556      -0.41685431       0.00000000      -0.28220749      -0.40965798      -0.00000000
H       -0.50873157      -0.83441049       0.00000000       0.00000000       0.00000000      -0.45934639       0.00001716       0.40824369       0.00000000       0.40824781       0.00000176       0.00000000       0.00000000      -0.00000000       0.42158088      -0.00000000       0.00000000       0.49999997      -0.19412239       0.41803791      -0.00000000       0.00000000      -0.00000000       0.49073790       0.43590294      -0.24321946      -0.00000000       0.00000000      -0.00000000      -0.49572524      -0.45139876       0.20172851       0.00000000      -0.00000000       0.00000000      -0.50000003      -0.44737588       0.21957946       0.00000000       0.41328217      -0.27711609      -0.00000000      -0.14438024       0.37080795      -0.00000000       0.24920820       0.43209399      -0.00000000       0.24852895       0.43285925      -0.00000000      -0.27163054      -0.41686138      -0.00000000       0.28220283       0.40965067       0.00000000
6
Properties=species:S:1:pos:R:3:xtb2_normal_mode_displacements_0:R:3:xtb2_normal_mode_displacements_1:R:3:xtb2_normal_mode_displacements_2:R:3:xtb2_normal_mode_displacements_3:R:3:xtb2_normal_mode_displacements_4:R:3:xtb2_normal_mode_displacements_5:R:3:xtb2_normal_mode_displacements_6:R:3:xtb2_normal_mode_displacements_7:R:3:xtb2_normal_mode_displacements_8:R:3:xtb2_normal_mode_displacements_9:R:3:xtb2_normal_mode_displacements_10:R:3:xtb2_normal_mode_displacements_11:R:3:xtb2_normal_mode_displacements_12:R:3:xtb2_normal_mode_displacements_13:R:3:xtb2_normal_mode_displacements_14:R:3:xtb2_normal_mode_displacements_15:R:3:xtb2_normal_mode_displacements_16:R:3:xtb2_normal_mode_displacements_17:R:3 ethene=T reference=T _ConfigSet_loc=" / 0 / 0" xtb2_normal_mode_frequencies="-0.020338645777405087 -2.2322407706243487e-06 -2.770149485445612e-07 0.044149902106740975 0.04962620440360888 0.05676578890631652 0.09825972483008971 0.1042252785527834 0.1153309027407552 0.12329166254388611 0.13136947406517283 0.1728069189043374 0.17600401187829592 0.2113825826396453 0.38392253460095827 0.3840101182474789 0.38796402875830654 0.3889069169375928" pbc="F F F"
C       -0.00024226       0.00000000       0.00000000       0.00000000       0.00000000      -0.27928801      -0.00000157       0.40825744       0.00000000       0.40824924       0.00000157       0.00000000       0.00000000      -0.00000000       0.38018306      -0.00000000       0.00000000      -0.00000000      -0.00000000       0.27408328      -0.00000000       0.00000000       0.00000000      -0.13547183      -0.00000000       0.04081874       0.00000000       0.00000000      -0.00000000       0.09226575      -0.00000000      -0.10530482      -0.00000000      -0.00000000      -0.00000000       0.00000000      -0.05724177      -0.00000000       0.00000000      -0.06936713      -0.00000000       0.00000000       0.42814951      -0.00000000       0.00000000      -0.04870671       0.00000000       0.00000000      -0.04171457       0.00000000       0.00000000      -0.00000000       0.06996833      -0.00000000      -0.00000000      -0.07132376       0.00000000
C        1.34964449      -0.00000000       0.00000000       0.00000000       0.00000000      -0.27928802      -0.00000157       0.40825747       0.00000000       0.40824924       0.00000157       0.00000000       0.00000000      -0.00000000      -0.38018305      -0.00000000      -0.00000000       0.00000000       0.00000000      -0.27408327      -0.00000000       0.00000000       0.00000000      -0.13547182       0.00000000       0.04081866       0.00000000       0.00000000       0.00000000      -0.09226575       0.00000000       0.10530484       0.00000000       0.00000000       0.00000000      -0.00000000       0.05724138       0.00000000      -0.00000000      -0.06936755      -0.00000000      -0.00000000      -0.42814945      -0.00000000      -0.00000000       0.04870735      -0.00000000      -0.00000000      -0.04171381       0.00000000       0.00000000       0.00000000       0.06996710       0.00000000       0.00000000       0.07132499       0.00000000
H       -0.52979503       0.87093175       0.00000000       0.00000000       0.00000000      -0.45934639      -0.00002030       0.40824369       0.00000000       0.40824781       0.00000138       0.00000000       0.00000000      -0.00000000       0.42158088       0.00000000       0.00000000      -0.49999997       0.19412239       0.41803791       0.00000000      -0.00000000      -0.00000000       0.49073790      -0.43590294      -0.24321946      -0.00000000      -0.00000000      -0.00000000      -0.49572524       0.45139876       0.20172851      -0.00000000       0.00000000       0.00000000       0.50000003      -0.44737588      -0.21957946       0.00000000       0.41328217       0.27711609       0.00000000      -0.14438024      -0.37080795       0.00000000       0.24920820      -0.43209399       0.00000000       0.24852895      -0.43285925      -0.00000000       0.27163054      -0.41686138       0.00000000      -0.28220283       0.40965067      -0.00000000
H        1.87919647      -0.87093119       0.00000000       0.00000000       0.00000000      -0.45934638      -0.00002029       0.40824372       0.00000000       0.40824781       0.00000138       0.00000000      -0.00000000      -0.00000000      -0.42158084      -0.00000000      -0.00000000      -0.50000003      -0.19412242      -0.41803786       0.00000000      -0.00000000      -0.00000000       0.49073791      -0.43590268      -0.24321926      -0.00000000      -0.00000000      -0.00000000       0.49572525      -0.45139917      -0.20172865       0.00000000      -0.00000000      -0.00000000      -0.49999997       0.44737823       0.21958097       0.00000000       0.41327963       0.27711484       0.00000000       0.14437992       0.37080760      -0.00000000      -0.24921201       0.43210074       0.00000000       0.24852508      -0.43285267      -0.00000000       0.27162556      -0.41685431      -0.00000000       0.28220749      -0.40965798       0.00000000
H        1.87919647       0.87093119       0.00000000       0.00000000       0.00000000      -0.45934638       0.00001715       0.40824372      -0.00000000       0.40824781       0.00000176       0.00000000       0.00000000      -0.00000000      -0.42158084       0.00000000      -0.00000000       0.50000003       0.19412242      -0.41803786      -0.00000000       0.00000000      -0.00000000       0.49073791       0.43590268      -0.24321926      -0.00000000       0.00000000      -0.00000000       0.49572525       0.45139917      -0.20172865      -0.00000000       0.00000000       0.00000000       0.49999997       0.44737823      -0.21958097      -0.00000000       0.41327963      -0.27711484       0.00000000       0.14437992      -0.37080760       0.00000000      -0.24921201      -0.43210074       0.00000000       0.24852508       0.43285267      -0.00000000      -0.27162556      -0.41685431       0.00000000      -0.28220749      -0.40965798      -0.00000000
H       -0.52979503      -0.87093175       0.00000000       0.00000000       0.00000000      -0.45934639       0.00001716       0.40824369       0.00000000       0.40824781       0.00000176       0.00000000       0.00000000      -0.00000000       0.42158088      -0.00000000       0.00000000       0.49999997      -0.19412239       0.41803791      -0.00000000       0.00000000      -0.00000000       0.49073790       0.43590294      -0.24321946      -0.00000000       0.00000000      -0.00000000      -0.49572524      -0.45139876       0.20172851       0.00000000      -0.00000000       0.00000000      -0.50000003      -0.44737588       0.21957946       0.00000000       0.41328217      -0.27711609      -0.00000000      -0.14438024       0.37080795      -0.00000000       0.24920820       0.43209399      -0.00000000       0.24852895       0.43285925      -0.00000000      -0.27163054      -0.41686138      -0.00000000       0.28220283       0.40965067       0.00000000
6
Properties=species:S:1:pos:R:3:xtb2_normal_mode_displacements_0:R:3:xtb2_normal_mode_displacements_1:R:3:xtb2_normal_mode_displacements_2:R:3:xtb2_normal_mode_displacements_3:R:3:xtb2_normal_mode_displacements_4:R:3:xtb2_normal_mode_displacements_5:R:3:xtb2_normal_mode_displacements_6:R:3:xtb2_normal_mode_displacements_7:R:3:xtb2_normal_mode_displacements_8:R:3:xtb2_normal_mode_displacements_9:R:3:xtb2_normal_mode_displacements_10:R:3:xtb2_normal_mode_displacements_11:R:3:xtb2_normal_mode_displacements_12:R:3:xtb2_normal_mode_displacements_13:R:3:xtb2_normal_mode_displacements_14:R:3:xtb2_normal_mode_displacements_15:R:3:xtb2_normal_mode_displacements_16:R:3:xtb2_normal_mode_displacements_17:R:3 ethene=T reference=T _ConfigSet_loc=" / 0 / 0" xtb2_normal_mode_frequencies="-0.020338645777405087 -2.2322407706243487e-06 -2.770149485445612e-07 0.044149902106740975 0.04962620440360888 0.05676578890631652 0.09825972483008971 0.1042252785527834 0.1153309027407552 0.12329166254388611 0.13136947406517283 0.1728069189043374 0.17600401187829592 0.2113825826396453 0.38392253460095827 0.3840101182474789 0.38796402875830654 0.3889069169375928" pbc="F F F"
C        0.01652041       0.00000000       0.00000000       0.00000000       0.00000000      -0.27928801      -0.00000157       0.40825744       0.00000000       0.40824924       0.00000157       0.00000000       0.00000000      -0.00000000       0.38018306      -0.00000000       0.00000000      -0.00000000      -0.00000000       0.27408328      -0.00000000       0.00000000       0.00000000      -0.13547183      -0.00000000       0.04081874       0.00000000       0.00000000      -0.00000000       0.09226575      -0.00000000      -0.10530482      -0.00000000      -0.00000000      -0.00000000       0.00000000      -0.05724177      -0.00000000       0.00000000      -0.06936713      -0.00000000       0.00000000       0.42814951      -0.00000000       0.00000000      -0.04870671       0.00000000       0.00000000      -0.04171457       0.00000000       0.00000000      -0.00000000       0.06996833      -0.00000000      -0.00000000      -0.07132376       0.00000000
C        1.33288160      -0.00000000       0.00000000       0.00000000       0.00000000      -0.27928802      -0.00000157       0.40825747       0.00000000       0.40824924       0.00000157       0.00000000       0.00000000      -0.00000000      -0.38018305      -0.00000000      -0.00000000       0.00000000       0.00000000      -0.27408327      -0.00000000       0.00000000       0.00000000      -0.13547182       0.00000000       0.04081866       0.00000000       0.00000000       0.00000000      -0.09226575       0.00000000       0.10530484       0.00000000       0.00000000       0.00000000      -0.00000000       0.05724138       0.00000000      -0.00000000      -0.06936755      -0.00000000      -0.00000000      -0.42814945      -0.00000000      -0.00000000       0.04870735      -0.00000000      -0.00000000      -0.04171381       0.00000000       0.00000000       0.00000000       0.06996710       0.00000000       0.00000000       0.07132499       0.00000000
H       -0.55464109       0.91401152       0.00000000       0.00000000       0.00000000      -0.45934639      -0.00002030       0.40824369       0.00000000       0.40824781       0.00000138       0.00000000       0.00000000      -0.00000000       0.42158088       0.00000000       0.00000000      -0.49999997       0.19412239       0.41803791       0.00000000      -0.00000000      -0.00000000       0.49073790      -0.43590294      -0.24321946      -0.00000000      -0.00000000      -0.00000000      -0.49572524       0.45139876       0.20172851      -0.00000000       0.00000000       0.00000000       0.50000003      -0.44737588      -0.21957946       0.00000000       0.41328217       0.27711609       0.00000000      -0.14438024      -0.37080795       0.00000000       0.24920820      -0.43209399       0.00000000       0.24852895      -0.43285925      -0.00000000       0.27163054      -0.41686138       0.00000000      -0.28220283       0.40965067      -0.00000000
H        1.90404291      -0.91401163       0.00000000       0.00000000       0.00000000      -0.45934638      -0.00002029       0.40824372       0.00000000       0.40824781       0.00000138       0.00000000      -0.00000000      -0.00000000      -0.42158084      -0.00000000      -0.00000000      -0.50000003      -0.19412242      -0.41803786       0.00000000      -0.00000000      -0.00000000       0.49073791      -0.43590268      -0.24321926      -0.00000000      -0.00000000      -0.00000000       0.49572525      -0.45139917      -0.20172865       0.00000000      -0.00000000      -0.00000000      -0.49999997       0.44737823       0.21958097       0.00000000       0.41327963       0.27711484       0.00000000       0.14437992       0.37080760      -0.00000000      -0.24921201       0.43210074       0.00000000       0.24852508      -0.43285267      -0.00000000       0.27162556      -0.41685431      -0.00000000       0.28220749      -0.40965798       0.00000000
H        1.90404291       0.91401163       0.00000000       0.00000000       0.00000000      -0.45934638       0.00001715       0.40824372      -0.00000000       0.40824781       0.00000176       0.00000000       0.00000000      -0.00000000      -0.42158084       0.00000000      -0.00000000       0.50000003       0.19412242      -0.41803786      -0.00000000       0.00000000      -0.00000000       0.49073791       0.43590268      -0.24321926      -0.00000000       0.00000000      -0.00000000       0.49572525       0.45139917      -0.20172865      -0.00000000       0.00000000       0.00000000       0.49999997       0.44737823      -0.21958097      -0.00000000       0.41327963      -0.27711484       0.00000000       0.14437992      -0.37080760       0.00000000      -0.24921201      -0.43210074       0.00000000       0.24852508       0.43285267      -0.00000000      -0.27162556      -0.41685431       0.00000000      -0.28220749      -0.40965798      -0.00000000
H       -0.55464109      -0.91401152       0.00000000       0.00000000       0.00000000      -0.45934639       0.00001716       0.40824369       0.00000000       0.40824781       0.00000176       0.00000000       0.00000000      -0.00000000       0.42158088      -0.00000000       0.00000000       0.49999997      -0.19412239       0.41803791      -0.00000000       0.00000000      -0.00000000       0.49073790       0.43590294      -0.24321946      -0.00000000       0.00000000      -0.00000000      -0.49572524      -0.45139876       0.20172851       0.00000000      -0.00000000       0.00000000      -0.50000003      -0.44737588       0.21957946       0.00000000       0.41328217      -0.27711609      -0.00000000      -0.14438024       0.37080795      -0.00000000       0.24920820       0.43209399      -0.00000000       0.24852895       0.43285925      -0.00000000      -0.27163054      -0.41686138      -0.00000000       0.28220283       0.40965067       0.00000000
6
Properties=species:S:1:pos:R:3:xtb2_normal_mode_displacements_0:R:3:xtb2_normal_mode_displacements_1:R:3:xtb2_normal_mode_displacements_2:R:3:xtb2_normal_mode_displacements_3:R:3:xtb2_normal_mode_displacements_4:R:3:xtb2_normal_mode_displacements_5:R:3:xtb2_normal_mode_displacements_6:R:3:xtb2_normal_mode_displacements_7:R:3:xtb2_normal_mode_displacements_8:R:3:xtb2_normal_mode_displacements_9:R:3:xtb2_normal_mode_displacements_10:R:3:xtb2_normal_mode_displacements_11:R:3:xtb2_normal_mode_displacements_12:R:3:xtb2_normal_mode_displacements_13:R:3:xtb2_normal_mode_displacements_14:R:3:xtb2_normal_mode_displacements_15:R:3:xtb2_normal_mode_displacements_16:R:3:xtb2_normal_mode_displacements_17:R:3 ethene=T reference=T _ConfigSet_loc=" / 0 / 0" xtb2_normal_mode_frequencies="-0.020338645777405087 -2.2322407706243487e-06 -2.770149485445612e-07 0.044149902106740975 0.04962620440360888 0.05676578890631652 0.09825972483008971 0.1042252785527834 0.1153309027407552 0.12329166254388611 0.13136947406517283 0.1728069189043374 0.17600401187829592 0.2113825826396453 0.38392253460095827 0.3840101182474789 0.38796402875830654 0.3889069169375928" pbc="F F F"
C        0.03328308       0.00000000       0.00000000       0.00000000       0.00000000      -0.27928801      -0.00000157       0.40825744       0.00000000       0.40824924       0.00000157       0.00000000       0.00000000      -0.00000000       0.38018306      -0.00000000       0.00000000      -0.00000000      -0.00000000       0.27408328      -0.00000000       0.00000000       0.00000000      -0.13547183      -0.00000000       0.04081874       0.00000000       0.00000000      -0.00000000       0.09226575      -0.00000000      -0.10530482      -0.00000000      -0.00000000      -0.00000000       0.00000000      -0.05724177      -0.00000000       0.00000000      -0.06936713      -0.00000000       0.00000000       0.42814951      -0.00000000       0.00000000      -0.04870671       0.00000000       0.00000000      -0.04171457       0.00000000       0.00000000      -0.00000000       0.06996833      -0.00000000      -0.00000000      -0.07132376       0.00000000
C        1.31611871       0.00000000       0.00000000       0.00000000       0.00000000      -0.27928802      -0.00000157       0.40825747       0.00000000       0.40824924       0.00000157       0.00000000       0.00000000      -0.00000000      -0.38018305      -0.00000000      -0.00000000       0.00000000       0.00000000      -0.27408327      -0.00000000       0.00000000       0.00000000      -0.13547182       0.00000000       0.04081866       0.00000000       0.00000000       0.00000000      -0.09226575       0.00000000       0.10530484       0.00000000       0.00000000       0.00000000      -0.00000000       0.05724138       0.00000000      -0.00000000      -0.06936755      -0.00000000      -0.00000000      -0.42814945      -0.00000000      -0.00000000       0.04870735      -0.00000000      -0.00000000      -0.04171381       0.00000000       0.00000000       0.00000000       0.06996710       0.00000000       0.00000000       0.07132499       0.00000000
H       -0.57948715       0.95709129      -0.00000000       0.00000000       0.00000000      -0.45934639      -0.00002030       0.40824369       0.00000000       0.40824781       0.00000138       0.00000000       0.00000000      -0.00000000       0.42158088       0.00000000       0.00000000      -0.49999997       0.19412239       0.41803791       0.00000000      -0.00000000      -0.00000000       0.49073790      -0.43590294      -0.24321946      -0.00000000      -0.00000000      -0.00000000      -0.49572524       0.45139876       0.20172851      -0.00000000       0.00000000       0.00000000       0.50000003      -0.44737588      -0.21957946       0.00000000       0.41328217       0.27711609       0.00000000      -0.14438024      -0.37080795       0.00000000       0.24920820      -0.43209399       0.00000000       0.24852895      -0.43285925      -0.00000000       0.27163054      -0.41686138       0.00000000      -0.28220283       0.40965067      -0.00000000
H        1.92888935      -0.95709207       0.00000000       0.00000000       0.00000000      -0.45934638      -0.00002029       0.40824372       0.00000000       0.40824781       0.00000138       0.00000000      -0.00000000      -0.00000000      -0.42158084      -0.00000000      -0.00000000      -0.50000003      -0.19412242      -0.41803786       0.00000000      -0.00000000      -0.00000000       0.49073791      -0.43590268      -0.24321926      -0.00000000      -0.00000000      -0.00000000       0.49572525      -0.45139917      -0.20172865       0.00000000      -0.00000000      -0.00000000      -0.49999997       0.44737823       0.21958097       0.00000000       0.41327963       0.27711484       0.00000000       0.14437992       0.37080760      -0.00000000      -0.24921201       0.43210074       0.00000000       0.24852508      -0.43285267      -0.00000000       0.27162556      -0.41685431      -0.00000000       0.28220749      -0.40965798       0.00000000
H        1.92888935       0.95709207      -0.00000000       0.00000000       0.00000000      -0.45934638       0.00001715       0.40824372      -0.00000000       0.40824781       0.00000176       0.00000000       0.00000000      -0.00000000      -0.42158084       0.00000000      -0.00000000       0.50000003       0.19412242      -0.41803786      -0.00000000       0.00000000      -0.00000000       0.49073791       0.43590268      -0.24321926      -0.00000000       0.00000000      -0.00000000       0.49572525       0.45139917      -0.20172865      -0.00000000       0.00000000       0.00000000       0.49999997       0.44737823      -0.21958097      -0.00000000       0.41327963      -0.27711484       0.00000000       0.14437992      -0.37080760       0.00000000      -0.24921201      -0.43210074       0.00000000       0.24852508       0.43285267      -0.00000000      -0.27162556      -0.41685431       0.00000000      -0.28220749      -0.40965798      -0.00000000
H       -0.57948715      -0.95709129       0.00000000       0.00000000       0.00000000      -0.45934639       0.00001716       0.40824369       0.00000000       0.40824781       0.00000176       0.00000000       0.00000000      -0.00000000       0.42158088      -0.00000000       0.00000000       0.49999997      -0.19412239       0.41803791      -0.00000000       0.00000000      -0.00000000       0.49073790       0.43590294      -0.24321946      -0.00000000       0.00000000      -0.00000000      -0.49572524      -0.45139876       0.20172851       0.00000000      -0.00000000       0.00000000      -0.50000003      -0.44737588       0.21957946       0.00000000       0.41328217      -0.27711609      -0.00000000      -0.14438024       0.37080795      -0.00000000       0.24920820       0.43209399      -0.00000000       0.24852895       0.43285925      -0.00000000      -0.27163054      -0.41686138      -0.00000000       0.28220283       0.40965067       0.00000000
6
Properties=species:S:1:pos:R:3:xtb2_normal_mode_displacements_0:R:3:xtb2_normal_mode_displacements_1:R:3:xtb2_normal_mode_displacements_2:R:3:xtb2_normal_mode_displacements_3:R:3:xtb2_normal_mode_displacements_4:R:3:xtb2_normal_mode_displacements_5:R:3:xtb2_normal_mode_displacements_6:R:3:xtb2_normal_mode_displacements_7:R:3:xtb2_normal_mode_displacements_8:R:3:xtb2_normal_mode_displacements_9:R:3:xtb2_normal_mode_displacements_10:R:3:xtb2_normal_mode_displacements_11:R:3:xtb2_normal_mode_displacements_12:R:3:xtb2_normal_mode_displacements_13:R:3:xtb2_normal_mode_displacements_14:R:3:xtb2_normal_mode_displacements_15:R:3:xtb2_normal_mode_displacements_16:R:3:xtb2_normal_mode_displacements_17:R:3 ethene=T reference=T _ConfigSet_loc=" / 0 / 0" xtb2_normal_mode_frequencies="-0.020338645777405087 -2.2322407706243487e-06 -2.770149485445612e-07 0.044149902106740975 0.04962620440360888 0.05676578890631652 0.09825972483008971 0.1042252785527834 0.1153309027407552 0.12329166254388611 0.13136947406517283 0.1728069189043374 0.17600401187829592 0.2113825826396453 0.38392253460095827 0.3840101182474789 0.38796402875830654 0.3889069169375928" pbc="F F F"
C        0.04749379       0.00000000       0.00000000       0.00000000       0.00000000      -0.27928801      -0.00000157       0.40825744       0.00000000       0.40824924       0.00000157       0.00000000       0.00000000      -0.00000000       0.38018306      -0.00000000       0.00000000      -0.00000000      -0.00000000       0.27408328      -0.00000000       0.00000000       0.00000000      -0.13547183      -0.00000000       0.04081874       0.00000000       0.00000000      -0.00000000       0.09226575      -0.00000000      -0.10530482      -0.00000000      -0.00000000      -0.00000000       0.00000000      -0.05724177      -0.00000000       0.00000000      -0.06936713      -0.00000000       0.00000000       0.42814951      -0.00000000       0.00000000      -0.04870671       0.00000000       0.00000000      -0.04171457       0.00000000       0.00000000      -0.00000000       0.06996833      -0.00000000      -0.00000000      -0.07132376       0.00000000
C        1.30190781       0.00000000       0.00000000       0.00000000       0.00000000      -0.27928802      -0.00000157       0.40825747       0.00000000       0.40824924       0.00000157       0.00000000       0.00000000      -0.00000000      -0.38018305      -0.00000000      -0.00000000       0.00000000       0.00000000      -0.27408327      -0.00000000       0.00000000       0.00000000      -0.13547182       0.00000000       0.04081866       0.00000000       0.00000000       0.00000000      -0.09226575       0.00000000       0.10530484       0.00000000       0.00000000       0.00000000      -0.00000000       0.05724138       0.00000000      -0.00000000      -0.06936755      -0.00000000      -0.00000000      -0.42814945      -0.00000000      -0.00000000       0.04870735      -0.00000000      -0.00000000      -0.04171381       0.00000000       0.00000000       0.00000000       0.06996710       0.00000000       0.00000000       0.07132499       0.00000000
H       -0.60055061       0.99361255      -0.00000000       0.00000000       0.00000000      -0.45934639      -0.00002030       0.40824369       0.00000000       0.40824781       0.00000138       0.00000000       0.00000000      -0.00000000       0.42158088       0.00000000       0.00000000      -0.49999997       0.19412239       0.41803791       0.00000000      -0.00000000      -0.00000000       0.49073790      -0.43590294      -0.24321946      -0.00000000      -0.00000000      -0.00000000      -0.49572524       0.45139876       0.20172851      -0.00000000       0.00000000       0.00000000       0.50000003      -0.44737588      -0.21957946       0.00000000       0.41328217       0.27711609       0.00000000      -0.14438024      -0.37080795       0.00000000       0.24920820      -0.43209399       0.00000000       0.24852895      -0.43285925      -0.00000000       0.27163054      -0.41686138       0.00000000      -0.28220283       0.40965067      -0.00000000
H        1.94995314      -0.99361390       0.00000000       0.00000000       0.00000000      -0.45934638      -0.00002029       0.40824372       0.00000000       0.40824781       0.00000138       0.00000000      -0.00000000      -0.00000000      -0.42158084      -0.00000000      -0.00000000      -0.50000003      -0.19412242      -0.41803786       0.00000000      -0.00000000      -0.00000000       0.49073791      -0.43590268      -0.24321926      -0.00000000      -0.00000000      -0.00000000       0.49572525      -0.45139917      -0.20172865       0.00000000      -0.00000000      -0.00000000      -0.49999997       0.44737823       0.21958097       0.00000000       0.41327963       0.27711484       0.00000000       0.14437992       0.37080760      -0.00000000      -0.24921201       0.43210074       0.00000000       0.24852508      -0.43285267      -0.00000000       0.27162556      -0.41685431      -0.00000000       0.28220749      -0.40965798       0.00000000
H        1.94995314       0.99361390      -0.00000000       0.00000000       0.00000000      -0.45934638       0.00001715       0.40824372      -0.00000000       0.40824781       0.00000176       0.00000000       0.00000000      -0.00000000      -0.42158084       0.00000000      -0.00000000       0.50000003       0.19412242      -0.41803786      -0.00000000       0.00000000      -0.00000000       0.49073791       0.43590268      -0.24321926      -0.00000000       0.00000000      -0.00000000       0.49572525       0.45139917      -0.20172865      -0.00000000       0.00000000       0.00000000       0.49999997       0.44737823      -0.21958097      -0.00000000       0.41327963      -0.27711484       0.00000000       0.14437992      -0.37080760       0.00000000      -0.24921201      -0.43210074       0.00000000       0.24852508       0.43285267      -0.00000000      -0.27162556      -0.41685431       0.00000000      -0.28220749      -0.40965798      -0.00000000
H       -0.60055061      -0.99361255       0.00000000       0.00000000       0.00000000      -0.45934639       0.00001716       0.40824369       0.00000000       0.40824781       0.00000176       0.00000000       0.00000000      -0.00000000       0.42158088      -0.00000000       0.00000000       0.49999997      -0.19412239       0.41803791      -0.00000000       0.00000000      -0.00000000       0.49073790       0.43590294      -0.24321946      -0.00000000       0.00000000      -0.00000000      -0.49572524      -0.45139876       0.20172851       0.00000000      -0.00000000       0.00000000      -0.50000003      -0.44737588       0.21957946       0.00000000       0.41328217      -0.27711609      -0.00000000      -0.14438024       0.37080795      -0.00000000       0.24920820       0.43209399      -0.00000000       0.24852895       0.43285925      -0.00000000      -0.27163054      -0.41686138      -0.00000000       0.28220283       0.40965067       0.00000000
6
Properties=species:S:1:pos:R:3:xtb2_normal_mode_displacements_0:R:3:xtb2_normal_mode_displacements_1:R:3:xtb2_normal_mode_displacements_2:R:3:xtb2_normal_mode_displacements_3:R:3:xtb2_normal_mode_displacements_4:R:3:xtb2_normal_mode_displacements_5:R:3:xtb2_normal_mode_displacements_6:R:3:xtb2_normal_mode_displacements_7:R:3:xtb2_normal_mode_displacements_8:R:3:xtb2_normal_mode_displacements_9:R:3:xtb2_normal_mode_displacements_10:R:3:xtb2_normal_mode_displacements_11:R:3:xtb2_normal_mode_displacements_12:R:3:xtb2_normal_mode_displacements_13:R:3:xtb2_normal_mode_displacements_14:R:3:xtb2_normal_mode_displacements_15:R:3:xtb2_normal_mode_displacements_16:R:3:xtb2_normal_mode_displacements_17:R:3 ethene=T reference=T _ConfigSet_loc=" / 0 / 0" xtb2_normal_mode_frequencies="-0.020338645777405087 -2.2322407706243487e-06 -2.770149485445612e-07 0.044149902106740975 0.04962620440360888 0.05676578890631652 0.09825972483008971 0.1042252785527834 0.1153309027407552 0.12329166254388611 0.13136947406517283 0.1728069189043374 0.17600401187829592 0.2113825826396453 0.38392253460095827 0.3840101182474789 0.38796402875830654 0.3889069169375928" pbc="F F F"
C        0.05698908       0.00000000       0.00000000       0.00000000       0.00000000      -0.27928801      -0.00000157       0.40825744       0.00000000       0.40824924       0.00000157       0.00000000       0.00000000      -0.00000000       0.38018306      -0.00000000       0.00000000      -0.00000000      -0.00000000       0.27408328      -0.00000000       0.00000000       0.00000000      -0.13547183      -0.00000000       0.04081874       0.00000000       0.00000000      -0.00000000       0.09226575      -0.00000000      -0.10530482      -0.00000000      -0.00000000      -0.00000000       0.00000000      -0.05724177      -0.00000000       0.00000000      -0.06936713      -0.00000000       0.00000000       0.42814951      -0.00000000       0.00000000      -0.04870671       0.00000000       0.00000000      -0.04171457       0.00000000       0.00000000      -0.00000000       0.06996833      -0.00000000      -0.00000000      -0.07132376       0.00000000
C        1.29241240       0.00000000       0.00000000       0.00000000       0.00000000      -0.27928802      -0.00000157       0.40825747       0.00000000       0.40824924       0.00000157       0.00000000       0.00000000      -0.00000000      -0.38018305      -0.00000000      -0.00000000       0.00000000       0.00000000      -0.27408327      -0.00000000       0.00000000       0.00000000      -0.13547182       0.00000000       0.04081866       0.00000000       0.00000000       0.00000000      -0.09226575       0.00000000       0.10530484       0.00000000       0.00000000       0.00000000      -0.00000000       0.05724138       0.00000000      -0.00000000      -0.06936755      -0.00000000      -0.00000000      -0.42814945      -0.00000000      -0.00000000       0.04870735      -0.00000000      -0.00000000      -0.04171381       0.00000000       0.00000000       0.00000000       0.06996710       0.00000000       0.00000000       0.07132499       0.00000000
H       -0.61462477       1.01801528      -0.00000000       0.00000000       0.00000000      -0.45934639      -0.00002030       0.40824369       0.00000000       0.40824781       0.00000138       0.00000000       0.00000000      -0.00000000       0.42158088       0.00000000       0.00000000      -0.49999997       0.19412239       0.41803791       0.00000000      -0.00000000      -0.00000000       0.49073790      -0.43590294      -0.24321946      -0.00000000      -0.00000000      -0.00000000      -0.49572524       0.45139876       0.20172851      -0.00000000       0.00000000       0.00000000       0.50000003      -0.44737588      -0.21957946       0.00000000       0.41328217       0.27711609       0.00000000      -0.14438024      -0.37080795       0.00000000       0.24920820      -0.43209399       0.00000000       0.24852895      -0.43285925      -0.00000000       0.27163054      -0.41686138       0.00000000      -0.28220283       0.40965067      -0.00000000
H        1.96402751      -1.01801701       0.00000000       0.00000000       0.00000000      -0.45934638      -0.00002029       0.40824372       0.00000000       0.40824781       0.00000138       0.00000000      -0.00000000      -0.00000000      -0.42158084      -0.00000000      -0.00000000      -0.50000003      -0.19412242      -0.41803786       0.00000000      -0.00000000      -0.00000000       0.49073791      -0.43590268      -0.24321926      -0.00000000      -0.00000000      -0.00000000       0.49572525      -0.45139917      -0.20172865       0.00000000      -0.00000000      -0.00000000      -0.49999997       0.44737823       0.21958097       0.00000000       0.41327963       0.27711484       0.00000000       0.14437992       0.37080760      -0.00000000      -0.24921201       0.43210074       0.00000000       0.24852508      -0.43285267      -0.00000000       0.27162556      -0.41685431      -0.00000000       0.28220749      -0.40965798       0.00000000
H        1.96402751       1.01801701      -0.00000000       0.00000000       0.00000000      -0.45934638       0.00001715       0.40824372      -0.00000000       0.40824781       0.00000176       0.00000000       0.00000000      -0.00000000      -0.42158084       0.00000000      -0.00000000       0.50000003       0.19412242      -0.41803786      -0.00000000       0.00000000      -0.00000000       0.49073791       0.43590268      -0.24321926      -0.00000000       0.00000000      -0.00000000       0.49572525       0.45139917      -0.20172865      -0.00000000       0.00000000       0.00000000       0.49999997       0.44737823      -0.21958097      -0.00000000       0.41327963      -0.27711484       0.00000000       0.14437992      -0.37080760       0.00000000      -0.24921201      -0.43210074       0.00000000       0.24852508       0.43285267      -0.00000000      -0.27162556      -0.41685431       0.00000000      -0.28220749      -0.40965798      -0.00000000
H       -0.61462477      -1.01801528       0.00000000       0.00000000       0.00000000      -0.45934639       0.00001716       0.40824369       0.00000000       0.40824781       0.00000176       0.00000000       0.00000000      -0.00000000       0.42158088      -0.00000000       0.00000000       0.49999997      -0.19412239       0.41803791      -0.00000000       0.00000000      -0.00000000       0.49073790       0.43590294      -0.24321946      -0.00000000       0.00000000      -0.00000000      -0.49572524      -0.45139876       0.20172851       0.00000000      -0.00000000       0.00000000      -0.50000003      -0.44737588       0.21957946       0.00000000       0.41328217      -0.27711609      -0.00000000      -0.14438024       0.37080795      -0.00000000       0.24920820       0.43209399      -0.00000000       0.24852895       0.43285925      -0.00000000      -0.27163054      -0.41686138      -0.00000000       0.28220283       0.40965067       0.00000000
6
Properties=species:S:1:pos:R:3:xtb2_normal_mode_displacements_0:R:3:xtb2_normal_mode_displacements_1:R:3:xtb2_normal_mode_displacements_2:R:3:xtb2_normal_mode_displacements_3:R:3:xtb2_normal_mode_displacements_4:R:3:xtb2_normal_mode_displacements_5:R:3:xtb2_normal_mode_displacements_6:R:3:xtb2_normal_mode_displacements_7:R:3:xtb2_normal_mode_displacements_8:R:3:xtb2_normal_mode_displacements_9:R:3:xtb2_normal_mode_displacements_10:R:3:xtb2_normal_mode_displacements_11:R:3:xtb2_normal_mode_displacements_12:R:3:xtb2_normal_mode_displacements_13:R:3:xtb2_normal_mode_displacements_14:R:3:xtb2_normal_mode_displacements_15:R:3:xtb2_normal_mode_displacements_16:R:3:xtb2_normal_mode_displacements_17:R:3 ethene=T reference=T _ConfigSet_loc=" / 0 / 0" xtb2_normal_mode_frequencies="-0.020338645777405087 -2.2322407706243487e-06 -2.770149485445612e-07 0.044149902106740975 0.04962620440360888 0.05676578890631652 0.09825972483008971 0.1042252785527834 0.1153309027407552 0.12329166254388611 0.13136947406517283 0.1728069189043374 0.17600401187829592 0.2113825826396453 0.38392253460095827 0.3840101182474789 0.38796402875830654 0.3889069169375928" pbc="F F F"
C        0.06032338       0.00000000       0.00000000       0.00000000       0.00000000      -0.27928801      -0.00000157       0.40825744       0.00000000       0.40824924       0.00000157       0.00000000       0.00000000      -0.00000000       0.38018306      -0.00000000       0.00000000      -0.00000000      -0.00000000       0.27408328      -0.00000000       0.00000000       0.00000000      -0.13547183      -0.00000000       0.04081874       0.00000000       0.00000000      -0.00000000       0.09226575      -0.00000000      -0.10530482      -0.00000000      -0.00000000      -0.00000000       0.00000000      -0.05724177      -0.00000000       0.00000000      -0.06936713      -0.00000000       0.00000000       0.42814951      -0.00000000       0.00000000      -0.04870671       0.00000000       0.00000000      -0.04171457       0.00000000       0.00000000      -0.00000000       0.06996833      -0.00000000      -0.00000000      -0.07132376       0.00000000
C        1.28907805       0.00000000       0.00000000       0.00000000       0.00000000      -0.27928802      -0.00000157       0.40825747       0.00000000       0.40824924       0.00000157       0.00000000       0.00000000      -0.00000000      -0.38018305      -0.00000000      -0.00000000       0.00000000       0.00000000      -0.27408327      -0.00000000       0.00000000       0.00000000      -0.13547182       0.00000000       0.04081866       0.00000000       0.00000000       0.00000000      -0.09226575       0.00000000       0.10530484       0.00000000       0.00000000       0.00000000      -0.00000000       0.05724138       0.00000000      -0.00000000      -0.06936755      -0.00000000      -0.00000000      -0.42814945      -0.00000000      -0.00000000       0.04870735      -0.00000000      -0.00000000      -0.04171381       0.00000000       0.00000000       0.00000000       0.06996710       0.00000000       0.00000000       0.07132499       0.00000000
H       -0.61956696       1.02658438      -0.00000000       0.00000000       0.00000000      -0.45934639      -0.00002030       0.40824369       0.00000000       0.40824781       0.00000138       0.00000000       0.00000000      -0.00000000       0.42158088       0.00000000       0.00000000      -0.49999997       0.19412239       0.41803791       0.00000000      -0.00000000      -0.00000000       0.49073790      -0.43590294      -0.24321946      -0.00000000      -0.00000000      -0.00000000      -0.49572524       0.45139876       0.20172851      -0.00000000       0.00000000       0.00000000       0.50000003      -0.44737588      -0.21957946       0.00000000       0.41328217       0.27711609       0.00000000      -0.14438024      -0.37080795       0.00000000       0.24920820      -0.43209399       0.00000000       0.24852895      -0.43285925      -0.00000000       0.27163054      -0.41686138       0.00000000      -0.28220283       0.40965067      -0.00000000
H        1.96896977      -1.02658625       0.00000000       0.00000000       0.00000000      -0.45934638      -0.00002029       0.40824372       0.00000000       0.40824781       0.00000138       0.00000000      -0.00000000      -0.00000000      -0.42158084      -0.00000000      -0.00000000      -0.50000003      -0.19412242      -0.41803786       0.00000000      -0.00000000      -0.00000000       0.49073791      -0.43590268      -0.24321926      -0.00000000      -0.00000000      -0.00000000       0.49572525      -0.45139917      -0.20172865       0.00000000      -0.00000000      -0.00000000      -0.49999997       0.44737823       0.21958097       0.00000000       0.41327963       0.27711484       0.00000000       0.14437992       0.37080760      -0.00000000      -0.24921201       0.43210074       0.00000000       0.24852508      -0.43285267      -0.00000000       0.27162556      -0.41685431      -0.00000000       0.28220749      -0.40965798       0.00000000
H        1.96896977       1.02658625      -0.00000000       0.00000000       0.00000000      -0.45934638       0.00001715       0.40824372      -0.00000000       0.40824781       0.00000176       0.00000000       0.00000000      -0.00000000      -0.42158084       0.00000000      -0.00000000       0.50000003       0.19412242      -0.41803786      -0.00000000       0.00000000      -0.00000000       0.49073791       0.43590268      -0.24321926      -0.00000000       0.00000000      -0.00000000       0.49572525       0.45139917      -0.20172865      -0.00000000       0.00000000       0.00000000       0.49999997       0.44737823      -0.21958097      -0.00000000       0.41327963      -0.27711484       0.00000000       0.14437992      -0.37080760       0.00000000      -0.24921201      -0.43210074       0.00000000       0.24852508       0.43285267      -0.00000000      -0.27162556      -0.41685431       0.00000000      -0.28220749      -0.40965798      -0.00000000
H       -0.61956696      -1.02658438       0.00000000       0.00000000       0.00000000      -0.45934639       0.00001716       0.40824369       0.00000000       0.40824781       0.00000176       0.00000000       0.00000000      -0.00000000       0.42158088      -0.00000000       0.00000000       0.49999997      -0.19412239       0.41803791      -0.00000000       0.00000000      -0.00000000       0.49073790       0.43590294      -0.24321946      -0.00000000       0.00000000      -0.00000000      -0.49572524      -0.45139876       0.20172851       0.00000000      -0.00000000       0.00000000      -0.50000003      -0.44737588       0.21957946       0.00000000       0.41328217      -0.27711609      -0.00000000      -0.14438024       0.37080795      -0.00000000       0.24920820       0.43209399      -0.00000000       0.24852895       0.43285925      -0.00000000      -0.27163054      -0.41686138      -0.00000000       0.28220283       0.40965067       0.00000000
6
Properties=species:S:1:pos:R:3:xtb2_normal_mode_displacements_0:R:3:xtb2_normal_mode_displacements_1:R:3:xtb2_normal_mode_displacements_2:R:3:xtb2_normal_mode_displacements_3:R:3:xtb2_normal_mode_displacements_4:R:3:xtb2_normal_mode_displacements_5:R:3:xtb2_normal_mode_displacements_6:R:3:xtb2_normal_mode_displacements_7:R:3:xtb2_normal_mode_displacements_8:R:3:xtb2_normal_mode_displacements_9:R:3:xtb2_normal_mode_displacements_10:R:3:xtb2_normal_mode_displacements_11:R:3:xtb2_normal_mode_displacements_12:R:3:xtb2_normal_mode_displacements_13:R:3:xtb2_normal_mode_displacements_14:R:3:xtb2_normal_mode_displacements_15:R:3:xtb2_normal_mode_displacements_16:R:3:xtb2_normal_mode_displacements_17:R:3 ethene=T reference=T _ConfigSet_loc=" / 0 / 0" xtb2_normal_mode_frequencies="-0.020338645777405087 -2.2322407706243487e-06 -2.770149485445612e-07 0.044149902106740975 0.04962620440360888 0.05676578890631652 0.09825972483008971 0.1042252785527834 0.1153309027407552 0.12329166254388611 0.13136947406517283 0.1728069189043374 0.17600401187829592 0.2113825826396453 0.38392253460095827 0.3840101182474789 0.38796402875830654 0.3889069169375928" pbc="F F F"
C        0.05698908       0.00000000       0.00000000       0.00000000       0.00000000      -0.27928801      -0.00000157       0.40825744       0.00000000       0.40824924       0.00000157       0.00000000       0.00000000      -0.00000000       0.38018306      -0.00000000       0.00000000      -0.00000000      -0.00000000       0.27408328      -0.00000000       0.00000000       0.00000000      -0.13547183      -0.00000000       0.04081874       0.00000000       0.00000000      -0.00000000       0.09226575      -0.00000000      -0.10530482      -0.00000000      -0.00000000      -0.00000000       0.00000000      -0.05724177      -0.00000000       0.00000000      -0.06936713      -0.00000000       0.00000000       0.42814951      -0.00000000       0.00000000      -0.04870671       0.00000000       0.00000000      -0.04171457       0.00000000       0.00000000      -0.00000000       0.06996833      -0.00000000      -0.00000000      -0.07132376       0.00000000
C        1.29241240       0.00000000       0.00000000       0.00000000       0.00000000      -0.27928802      -0.00000157       0.40825747       0.00000000       0.40824924       0.00000157       0.00000000       0.00000000      -0.00000000      -0.38018305      -0.00000000      -0.00000000       0.00000000       0.00000000      -0.27408327      -0.00000000       0.00000000       0.00000000      -0.13547182       0.00000000       0.04081866       0.00000000       0.00000000       0.00000000      -0.09226575       0.00000000       0.10530484       0.00000000       0.00000000       0.00000000      -0.00000000       0.05724138       0.00000000      -0.00000000      -0.06936755      -0.00000000      -0.00000000      -0.42814945      -0.00000000      -0.00000000       0.04870735      -0.00000000      -0.00000000      -0.04171381       0.00000000       0.00000000       0.00000000       0.06996710       0.00000000       0.00000000       0.07132499       0.00000000
H       -0.61462477       1.01801528      -0.00000000       0.00000000       0.00000000      -0.45934639      -0.00002030       0.40824369       0.00000000       0.40824781       0.00000138       0.00000000       0.00000000      -0.00000000       0.42158088       0.00000000       0.00000000      -0.49999997       0.19412239       0.41803791       0.00000000      -0.00000000      -0.00000000       0.49073790      -0.43590294      -0.24321946      -0.00000000      -0.00000000      -0.00000000      -0.49572524       0.45139876       0.20172851      -0.00000000       0.00000000       0.00000000       0.50000003      -0.44737588      -0.21957946       0.00000000       0.41328217       0.27711609       0.00000000      -0.14438024      -0.37080795       0.00000000       0.24920820      -0.43209399       0.00000000       0.24852895      -0.43285925      -0.00000000       0.27163054      -0.41686138       0.00000000      -0.28220283       0.40965067      -0.00000000
H        1.96402751      -1.01801701       0.00000000       0.00000000       0.00000000      -0.45934638      -0.00002029       0.40824372       0.00000000       0.40824781       0.00000138       0.00000000      -0.00000000      -0.00000000      -0.42158084      -0.00000000      -0.00000000      -0.50000003      -0.19412242      -0.41803786       0.00000000      -0.00000000      -0.00000000       0.49073791      -0.43590268      -0.24321926      -0.00000000      -0.00000000      -0.00000000       0.49572525      -0.45139917      -0.20172865       0.00000000      -0.00000000      -0.00000000      -0.49999997       0.44737823       0.21958097       0.00000000       0.41327963       0.27711484       0.00000000       0.14437992       0.37080760      -0.00000000      -0.24921201       0.43210074       0.00000000       0.24852508      -0.43285267      -0.00000000       0.27162556      -0.41685431      -0.00000000       0.28220749      -0.40965798       0.00000000
H        1.96402751       1.01801701      -0.00000000       0.00000000       0.00000000      -0.45934638       0.00001715       0.40824372      -0.00000000       0.40824781       0.00000176       0.00000000       0.00000000      -0.00000000      -0.42158084       0.00000000      -0.00000000       0.50000003       0.19412242      -0.41803786      -0.00000000       0.00000000      -0.00000000       0.49073791       0.43590268      -0.24321926      -0.00000000       0.00000000      -0.00000000       0.49572525       0.45139917      -0.20172865      -0.00000000       0.00000000       0.00000000       0.49999997       0.44737823      -0.21958097      -0.00000000       0.41327963      -0.27711484       0.00000000       0.14437992      -0.37080760       0.00000000      -0.24921201      -0.43210074       0.00000000       0.24852508       0.43285267      -0.00000000      -0.27162556      -0.41685431       0.00000000      -0.28220749      -0.40965798      -0.00000000
H       -0.61462477      -1.01801528       0.00000000       0.00000000       0.00000000      -0.45934639       0.00001716       0.40824369       0.00000000       0.40824781       0.00000176       0.00000000       0.00000000      -0.00000000       0.42158088      -0.00000000       0.00000000       0.49999997      -0.19412239       0.41803791      -0.00000000       0.00000000      -0.00000000       0.49073790       0.43590294      -0.24321946      -0.00000000       0.00000000      -0.00000000      -0.49572524      -0.45139876       0.20172851       0.00000000      -0.00000000       0.00000000      -0.50000003      -0.44737588       0.21957946       0.00000000       0.41328217      -0.27711609      -0.00000000      -0.14438024       0.37080795      -0.00000000       0.24920820       0.43209399      -0.00000000       0.24852895       0.43285925      -0.00000000      -0.27163054      -0.41686138      -0.00000000       0.28220283       0.40965067       0.00000000
6
Properties=species:S:1:pos:R:3:xtb2_normal_mode_displacements_0:R:3:xtb2_normal_mode_displacements_1:R:3:xtb2_normal_mode_displacements_2:R:3:xtb2_normal_mode_displacements_3:R:3:xtb2_normal_mode_displacements_4:R:3:xtb2_normal_mode_displacements_5:R:3:xtb2_normal_mode_displacements_6:R:3:xtb2_normal_mode_displacements_7:R:3:xtb2_normal_mode_displacements_8:R:3:xtb2_normal_mode_displacements_9:R:3:xtb2_normal_mode_displacements_10:R:3:xtb2_normal_mode_displacements_11:R:3:xtb2_normal_mode_displacements_12:R:3:xtb2_normal_mode_displacements_13:R:3:xtb2_normal_mode_displacements_14:R:3:xtb2_normal_mode_displacements_15:R:3:xtb2_normal_mode_displacements_16:R:3:xtb2_normal_mode_displacements_17:R:3 ethene=T reference=T _ConfigSet_loc=" / 0 / 0" xtb2_normal_mode_frequencies="-0.020338645777405087 -2.2322407706243487e-06 -2.770149485445612e-07 0.044149902106740975 0.04962620440360888 0.05676578890631652 0.09825972483008971 0.1042252785527834 0.1153309027407552 0.12329166254388611 0.13136947406517283 0.1728069189043374 0.17600401187829592 0.2113825826396453 0.38392253460095827 0.3840101182474789 0.38796402875830654 0.3889069169375928" pbc="F F F"
C        0.04749379       0.00000000       0.00000000       0.00000000       0.00000000      -0.27928801      -0.00000157       0.40825744       0.00000000       0.40824924       0.00000157       0.00000000       0.00000000      -0.00000000       0.38018306      -0.00000000       0.00000000      -0.00000000      -0.00000000       0.27408328      -0.00000000       0.00000000       0.00000000      -0.13547183      -0.00000000       0.04081874       0.00000000       0.00000000      -0.00000000       0.09226575      -0.00000000      -0.10530482      -0.00000000      -0.00000000      -0.00000000       0.00000000      -0.05724177      -0.00000000       0.00000000      -0.06936713      -0.00000000       0.00000000       0.42814951      -0.00000000       0.00000000      -0.04870671       0.00000000       0.00000000      -0.04171457       0.00000000       0.00000000      -0.00000000       0.06996833      -0.00000000      -0.00000000      -0.07132376       0.00000000
C        1.30190781       0.00000000       0.00000000       0.00000000       0.00000000      -0.27928802      -0.00000157       0.40825747       0.00000000       0.40824924       0.00000157       0.00000000       0.00000000      -0.00000000      -0.38018305      -0.00000000      -0.00000000       0.00000000       0.00000000      -0.27408327      -0.00000000       0.00000000       0.00000000      -0.13547182       0.00000000       0.04081866       0.00000000       0.00000000       0.00000000      -0.09226575       0.00000000       0.10530484       0.00000000       0.00000000       0.00000000      -0.00000000       0.05724138       0.00000000      -0.00000000      -0.06936755      -0.00000000      -0.00000000      -0.42814945      -0.00000000      -0.00000000       0.04870735      -0.00000000      -0.00000000      -0.04171381       0.00000000       0.00000000       0.00000000       0.06996710       0.00000000       0.00000000       0.07132499       0.00000000
H       -0.60055061       0.99361255      -0.00000000       0.00000000       0.00000000      -0.45934639      -0.00002030       0.40824369       0.00000000       0.40824781       0.00000138       0.00000000       0.00000000      -0.00000000       0.42158088       0.00000000       0.00000000      -0.49999997       0.19412239       0.41803791       0.00000000      -0.00000000      -0.00000000       0.49073790      -0.43590294      -0.24321946      -0.00000000      -0.00000000      -0.00000000      -0.49572524       0.45139876       0.20172851      -0.00000000       0.00000000       0.00000000       0.50000003      -0.44737588      -0.21957946       0.00000000       0.41328217       0.27711609       0.00000000      -0.14438024      -0.37080795       0.00000000       0.24920820      -0.43209399       0.00000000       0.24852895      -0.43285925      -0.00000000       0.27163054      -0.41686138       0.00000000      -0.28220283       0.40965067      -0.00000000
H        1.94995314      -0.99361390       0.00000000       0.00000000       0.00000000      -0.45934638      -0.00002029       0.40824372       0.00000000       0.40824781       0.00000138       0.00000000      -0.00000000      -0.00000000      -0.42158084      -0.00000000      -0.00000000      -0.50000003      -0.19412242      -0.41803786       0.00000000      -0.00000000      -0.00000000       0.49073791      -0.43590268      -0.24321926      -0.00000000      -0.00000000      -0.00000000       0.49572525      -0.45139917      -0.20172865       0.00000000      -0.00000000      -0.00000000      -0.49999997       0.44737823       0.21958097       0.00000000       0.41327963       0.27711484       0.00000000       0.14437992       0.37080760      -0.00000000      -0.24921201       0.43210074       0.00000000       0.24852508      -0.43285267      -0.00000000       0.27162556      -0.41685431      -0.00000000       0.28220749      -0.40965798       0.00000000
H        1.94995314       0.99361390      -0.00000000       0.00000000       0.00000000      -0.45934638       0.00001715       0.40824372      -0.00000000       0.40824781       0.00000176       0.00000000       0.00000000      -0.00000000      -0.42158084       0.00000000      -0.00000000       0.50000003       0.19412242      -0.41803786      -0.00000000       0.00000000      -0.00000000       0.49073791       0.43590268      -0.24321926      -0.00000000       0.00000000      -0.00000000       0.49572525       0.45139917      -0.20172865      -0.00000000       0.00000000       0.00000000       0.49999997       0.44737823      -0.21958097      -0.00000000       0.41327963      -0.27711484       0.00000000       0.14437992      -0.37080760       0.00000000      -0.24921201      -0.43210074       0.00000000       0.24852508       0.43285267      -0.00000000      -0.27162556      -0.41685431       0.00000000      -0.28220749      -0.40965798      -0.00000000
H       -0.60055061      -0.99361255       0.00000000       0.00000000       0.00000000      -0.45934639       0.00001716       0.40824369       0.00000000       0.40824781       0.00000176       0.00000000       0.00000000      -0.00000000       0.42158088      -0.00000000       0.00000000       0.49999997      -0.19412239       0.41803791      -0.00000000       0.00000000      -0.00000000       0.49073790       0.43590294      -0.24321946      -0.00000000       0.00000000      -0.00000000      -0.49572524      -0.45139876       0.20172851       0.00000000      -0.00000000       0.00000000      -0.50000003      -0.44737588       0.21957946       0.00000000       0.41328217      -0.27711609      -0.00000000      -0.14438024       0.37080795      -0.00000000       0.24920820       0.43209399      -0.00000000       0.24852895       0.43285925      -0.00000000      -0.27163054      -0.41686138      -0.00000000       0.28220283       0.40965067       0.00000000
6
Properties=species:S:1:pos:R:3:xtb2_normal_mode_displacements_0:R:3:xtb2_normal_mode_displacements_1:R:3:xtb2_normal_mode_displacements_2:R:3:xtb2_normal_mode_displacements_3:R:3:xtb2_normal_mode_displacements_4:R:3:xtb2_normal_mode_displacements_5:R:3:xtb2_normal_mode_displacements_6:R:3:xtb2_normal_mode_displacements_7:R:3:xtb2_normal_mode_displacements_8:R:3:xtb2_normal_mode_displacements_9:R:3:xtb2_normal_mode_displacements_10:R:3:xtb2_normal_mode_displacements_11:R:3:xtb2_normal_mode_displacements_12:R:3:xtb2_normal_mode_displacements_13:R:3:xtb2_normal_mode_displacements_14:R:3:xtb2_normal_mode_displacements_15:R:3:xtb2_normal_mode_displacements_16:R:3:xtb2_normal_mode_displacements_17:R:3 ethene=T reference=T _ConfigSet_loc=" / 0 / 0" xtb2_normal_mode_frequencies="-0.020338645777405087 -2.2322407706243487e-06 -2.770149485445612e-07 0.044149902106740975 0.04962620440360888 0.05676578890631652 0.09825972483008971 0.1042252785527834 0.1153309027407552 0.12329166254388611 0.13136947406517283 0.1728069189043374 0.17600401187829592 0.2113825826396453 0.38392253460095827 0.3840101182474789 0.38796402875830654 0.3889069169375928" pbc="F F F"
C        0.03328308       0.00000000       0.00000000       0.00000000       0.00000000      -0.27928801      -0.00000157       0.40825744       0.00000000       0.40824924       0.00000157       0.00000000       0.00000000      -0.00000000       0.38018306      -0.00000000       0.00000000      -0.00000000      -0.00000000       0.27408328      -0.00000000       0.00000000       0.00000000      -0.13547183      -0.00000000       0.04081874       0.00000000       0.00000000      -0.00000000       0.09226575      -0.00000000      -0.10530482      -0.00000000      -0.00000000      -0.00000000       0.00000000      -0.05724177      -0.00000000       0.00000000      -0.06936713      -0.00000000       0.00000000       0.42814951      -0.00000000       0.00000000      -0.04870671       0.00000000       0.00000000      -0.04171457       0.00000000       0.00000000      -0.00000000       0.06996833      -0.00000000      -0.00000000      -0.07132376       0.00000000
C        1.31611871       0.00000000       0.00000000       0.00000000       0.00000000      -0.27928802      -0.00000157       0.40825747       0.00000000       0.40824924       0.00000157       0.00000000       0.00000000      -0.00000000      -0.38018305      -0.00000000      -0.00000000       0.00000000       0.00000000      -0.27408327      -0.00000000       0.00000000       0.00000000      -0.13547182       0.00000000       0.04081866       0.00000000       0.00000000       0.00000000      -0.09226575       0.00000000       0.10530484       0.00000000       0.00000000       0.00000000      -0.00000000       0.05724138       0.00000000      -0.00000000      -0.06936755      -0.00000000      -0.00000000      -0.42814945      -0.00000000      -0.00000000       0.04870735      -0.00000000      -0.00000000      -0.04171381       0.00000000       0.00000000       0.00000000       0.06996710       0.00000000       0.00000000       0.07132499       0.00000000
H       -0.57948715       0.95709129      -0.00000000       0.00000000       0.00000000      -0.45934639      -0.00002030       0.40824369       0.00000000       0.40824781       0.00000138       0.00000000       0.00000000      -0.00000000       0.42158088       0.00000000       0.00000000      -0.49999997       0.19412239       0.41803791       0.00000000      -0.00000000      -0.00000000       0.49073790      -0.43590294      -0.24321946      -0.00000000      -0.00000000      -0.00000000      -0.49572524       0.45139876       0.20172851      -0.00000000       0.00000000       0.00000000       0.50000003      -0.44737588      -0.21957946       0.00000000       0.41328217       0.27711609       0.00000000      -0.14438024      -0.37080795       0.00000000       0.24920820      -0.43209399       0.00000000       0.24852895      -0.43285925      -0.00000000       0.27163054      -0.41686138       0.00000000      -0.28220283       0.40965067      -0.00000000
H        1.92888935      -0.95709207       0.00000000       0.00000000       0.00000000      -0.45934638      -0.00002029       0.40824372       0.00000000       0.40824781       0.00000138       0.00000000      -0.00000000      -0.00000000      -0.42158084      -0.00000000      -0.00000000      -0.50000003      -0.19412242      -0.41803786       0.00000000      -0.00000000      -0.00000000       0.49073791      -0.43590268      -0.24321926      -0.00000000      -0.00000000      -0.00000000       0.49572525      -0.45139917      -0.20172865       0.00000000      -0.00000000      -0.00000000      -0.49999997       0.44737823       0.21958097       0.00000000       0.41327963       0.27711484       0.00000000       0.14437992       0.37080760      -0.00000000      -0.24921201       0.43210074       0.00000000       0.24852508      -0.43285267      -0.00000000       0.27162556      -0.41685431      -0.00000000       0.28220749      -0.40965798       0.00000000
H        1.92888935       0.95709207      -0.00000000       0.00000000       0.00000000      -0.45934638       0.00001715       0.40824372      -0.00000000       0.40824781       0.00000176       0.00000000       0.00000000      -0.00000000      -0.42158084       0.00000000      -0.00000000       0.50000003       0.19412242      -0.41803786      -0.00000000       0.00000000      -0.00000000       0.49073791       0.43590268      -0.24321926      -0.00000000       0.00000000      -0.00000000       0.49572525       0.45139917      -0.20172865      -0.00000000       0.00000000       0.00000000       0.49999997       0.44737823      -0.21958097      -0.00000000       0.41327963      -0.27711484       0.00000000       0.14437992      -0.37080760       0.00000000      -0.24921201      -0.43210074       0.00000000       0.24852508       0.43285267      -0.00000000      -0.27162556      -0.41685431       0.00000000      -0.28220749      -0.40965798      -0.00000000
H       -0.57948715      -0.95709129       0.00000000       0.00000000       0.00000000      -0.45934639       0.00001716       0.40824369       0.00000000       0.40824781       0.00000176       0.00000000       0.00000000      -0.00000000       0.42158088      -0.00000000       0.00000000       0.49999997      -0.19412239       0.41803791      -0.00000000       0.00000000      -0.00000000       0.49073790       0.43590294      -0.24321946      -0.00000000       0.00000000      -0.00000000      -0.49572524      -0.45139876       0.20172851       0.00000000      -0.00000000       0.00000000      -0.50000003      -0.44737588       0.21957946       0.00000000       0.41328217      -0.27711609      -0.00000000      -0.14438024       0.37080795      -0.00000000       0.24920820       0.43209399      -0.00000000       0.24852895       0.43285925      -0.00000000      -0.27163054      -0.41686138      -0.00000000       0.28220283       0.40965067       0.00000000
