24
Properties=species:S:1:pos:R:3 azobenzene=T reference=T pbc="F F F"
C       -4.46092549      -0.19592385      -0.52025504
C       -3.55344535       0.25020817      -1.47043463
C       -2.20594551       0.28494118      -1.18075857
C       -1.74932075      -0.14080078       0.07312907
N       -0.41426917      -0.21382695       0.41026629
N        0.38423180       0.54031682      -0.21991124
C        1.73214616       0.36678967       0.01328538
C        2.28850690      -0.83817381       0.46107862
C        3.65586953      -0.95864992       0.59022231
C        4.48323488       0.11338533       0.28756627
C        3.93864896       1.30996685      -0.15627353
C        2.57339677       1.43778752      -0.30604442
C       -2.66822373      -0.60510175       1.02010179
C       -4.01535824      -0.61884647       0.72392308
H       -5.51562260      -0.21941666      -0.75165242
H       -3.90428421       0.57225167      -2.44035161
H       -1.48031751       0.62001470      -1.90700386
H        1.62533774      -1.66122248       0.68250822
H        4.08479030      -1.89072851       0.92903854
H        5.55361803       0.01432209       0.39219541
H        4.58650153       2.14149018      -0.39226516
H        2.13074181       2.36059872      -0.64847820
H       -2.30227520      -0.92857848       1.98251025
H       -4.72509670      -0.96687369       1.46011583
