12
Properties=species:S:1:pos:R:3 butene=T reference=T pbc="F F F"
C        0.01703327       0.00935146      -0.00002718
C        1.33937932      -0.01526005       0.00002648
H       -0.50330317       0.95941564      -0.00009678
H        1.85448781      -0.96694970       0.00009923
C        2.20232565       1.21072904       0.00000010
C       -0.85695440      -1.20043729       0.00000722
H       -0.26221713      -2.11075093       0.00002871
H       -1.50119134      -1.20156679      -0.87929876
H       -1.50118034      -1.20152190       0.87932182
H        3.25572914       0.94498411      -0.00002190
H        2.00139082       1.82229530       0.87905435
H        2.00134877       1.82229062      -0.87904701
