12
Properties=species:S:1:pos:R:3:xtb2_normal_mode_displacements_0:R:3:xtb2_normal_mode_displacements_1:R:3:xtb2_normal_mode_displacements_2:R:3:xtb2_normal_mode_displacements_3:R:3:xtb2_normal_mode_displacements_4:R:3:xtb2_normal_mode_displacements_5:R:3:xtb2_normal_mode_displacements_6:R:3:xtb2_normal_mode_displacements_7:R:3:xtb2_normal_mode_displacements_8:R:3:xtb2_normal_mode_displacements_9:R:3:xtb2_normal_mode_displacements_10:R:3:xtb2_normal_mode_displacements_11:R:3:xtb2_normal_mode_displacements_12:R:3:xtb2_normal_mode_displacements_13:R:3:xtb2_normal_mode_displacements_14:R:3:xtb2_normal_mode_displacements_15:R:3:xtb2_normal_mode_displacements_16:R:3:xtb2_normal_mode_displacements_17:R:3:xtb2_normal_mode_displacements_18:R:3:xtb2_normal_mode_displacements_19:R:3:xtb2_normal_mode_displacements_20:R:3:xtb2_normal_mode_displacements_21:R:3:xtb2_normal_mode_displacements_22:R:3:xtb2_normal_mode_displacements_23:R:3:xtb2_normal_mode_displacements_24:R:3:xtb2_normal_mode_displacements_25:R:3:xtb2_normal_mode_displacements_26:R:3:xtb2_normal_mode_displacements_27:R:3:xtb2_normal_mode_displacements_28:R:3:xtb2_normal_mode_displacements_29:R:3:xtb2_normal_mode_displacements_30:R:3:xtb2_normal_mode_displacements_31:R:3:xtb2_normal_mode_displacements_32:R:3:xtb2_normal_mode_displacements_33:R:3:xtb2_normal_mode_displacements_34:R:3:xtb2_normal_mode_displacements_35:R:3 butene=T reference=T _ConfigSet_loc=" / 0 / 0" xtb2_normal_mode_frequencies="-0.020805350599677645 -0.0012520287572930428 -0.0008057157555249398 -4.5646307594914854e-05 -1.544271636343004e-06 2.0070667760733657e-05 0.0007792852814774499 0.020007895212821186 0.030827178750387946 0.03379472539721994 0.06147046924481604 0.08694186489268312 0.11505838067939451 0.12427408663486034 0.12511644226890012 0.12691071213329774 0.13044988333222152 0.1391633835201524 0.14195157959406351 0.15814728268344924 0.161403301474211 0.17400433576408564 0.17465713361699353 0.18358617565523236 0.18451272219423798 0.18453214420220326 0.18474813708238022 0.21569178023426594 0.3710653957286146 0.37201378110443734 0.3729909202179395 0.3734662167474916 0.37645626122957077 0.3776743594254655 0.3781192902563234 0.379676400084026" pbc="F F F"
C        0.01703327       0.00935146      -0.00002718      -0.00000219       0.00000336       0.06748807      -0.00000559       0.00000916       0.12212985      -0.00614295      -0.09692342       0.00000606      -0.00000501       0.00002407       0.29206110       0.13163050      -0.25691768       0.00002379       0.25677989       0.12859307      -0.00000667       0.00000163       0.00000451      -0.05405953       0.00000299      -0.00000375      -0.09743338       0.00001026      -0.00001152      -0.17628007      -0.15989949       0.12211245      -0.00001533       0.01200567       0.17692842      -0.00000709       0.00000474      -0.00000819      -0.14139153      -0.03346491       0.08690673      -0.00000724       0.00000078      -0.00000096      -0.00122224       0.02641785      -0.04570419       0.00000106      -0.00000306       0.00000180       0.09531005      -0.00000429       0.00000765       0.10139995      -0.13752430      -0.17267510       0.00000252       0.02319795       0.20679016      -0.00001116      -0.08855670      -0.02362058      -0.00000150       0.03987610      -0.08167344       0.00000626       0.00648479       0.02268491      -0.00000070      -0.01422627       0.00480927      -0.00000080      -0.00000038      -0.00000073       0.01148138      -0.00519387      -0.00462566       0.00000003      -0.00000407      -0.00000610      -0.00033160       0.00415898       0.00502256      -0.00000046      -0.55546241      -0.07424367      -0.00001728      -0.00000071      -0.00000031       0.00179280      -0.00000007      -0.00000116      -0.00012193       0.00139831       0.00495002       0.00000006      -0.00092282       0.00483815      -0.00000038       0.01637363      -0.02591311       0.00000203      -0.02077876       0.02980516      -0.00000235       0.02835169      -0.04467337       0.00000347      -0.01735652       0.03406534      -0.00000244
C        1.33937932      -0.01526005       0.00002648       0.00000248      -0.00000404      -0.04758114       0.00000487      -0.00000777      -0.14330379      -0.00260990       0.09284680      -0.00000763      -0.00000435       0.00002238       0.27498941       0.13163092      -0.25692797       0.00002184       0.25689140       0.13459017      -0.00000618      -0.00000103      -0.00000460       0.00726094      -0.00000254       0.00000268       0.04453399       0.00001204      -0.00001492      -0.22198727      -0.15883473       0.12881301      -0.00001835      -0.01985896      -0.16863397       0.00000972      -0.00000683       0.00000684       0.14939235       0.04389036      -0.09101025       0.00000701       0.00000317      -0.00000415      -0.03581761       0.01362209      -0.00488053       0.00000802       0.00000432      -0.00000772      -0.09567610      -0.00000354       0.00000275       0.08222047      -0.13336065      -0.28197104       0.00001021       0.02611065      -0.13426829       0.00000769      -0.10191264      -0.01324020      -0.00000399      -0.02938487       0.08349719      -0.00000518       0.01089938      -0.00969461       0.00000117      -0.00933056      -0.01438009       0.00000074      -0.00000062       0.00000017       0.00060586       0.02338722       0.01169582      -0.00001147       0.00002412       0.00001731       0.01055505       0.00971860      -0.01258606       0.00000254       0.54379582       0.07123561       0.00001871       0.00000018       0.00000008       0.00022403       0.00000188      -0.00000098       0.00148631      -0.00126622       0.00038203      -0.00000002      -0.00611694       0.00606801      -0.00000014      -0.00118201      -0.00189184       0.00000006       0.02560914      -0.04094076       0.00000331      -0.00864247       0.00685988      -0.00000064      -0.03178962       0.05562476      -0.00000426
H       -0.50330317       0.95941564      -0.00009678      -0.00000799       0.00001294       0.24073037      -0.00001597       0.00002701       0.44309473      -0.14260435      -0.17165367       0.00002342      -0.00000633       0.00002689       0.34029384       0.13164507      -0.25690780       0.00002798       0.25246350       0.12622903      -0.00000768       0.00000521       0.00001637       0.08091855       0.00000958      -0.00001007      -0.23001709       0.00001094      -0.00000788      -0.13405564      -0.29191125       0.04257858      -0.00001480       0.15496007       0.24046056      -0.00000564      -0.00002502       0.00002685       0.55583124       0.20434738       0.21511290      -0.00001770      -0.00000401       0.00004071       0.59991421       0.32683170       0.12343428      -0.00002387       0.00001952      -0.00001364      -0.28563826       0.00000848      -0.00002303      -0.40478354      -0.19671369      -0.20921844       0.00000259       0.16774450       0.26476721      -0.00000327       0.60384886       0.35623080       0.00000292       0.57782630       0.22519915       0.00001200      -0.09406086      -0.03294611      -0.00000456      -0.00650655       0.00895070      -0.00000115       0.00000264      -0.00000174      -0.02891030      -0.01490400      -0.00968248      -0.00000381      -0.00001750      -0.00001322       0.00144163      -0.01658667      -0.00653431       0.00000042       0.11550566       0.34134069      -0.00001428      -0.00000065       0.00000129      -0.00120519      -0.00000607       0.00001240       0.00191578       0.02681777      -0.04941507       0.00000311       0.02596940      -0.05214566       0.00000450      -0.19482453       0.35551819      -0.00002604       0.22291874      -0.39554666       0.00002940      -0.31027083       0.55823993      -0.00004127       0.21747286      -0.39443643       0.00002913
H        1.85448781      -0.96694970       0.00009923       0.00000784      -0.00001563      -0.24023474       0.00001594      -0.00002628      -0.46365068       0.13404370       0.16680055      -0.00002494      -0.00000297       0.00001944       0.22671233       0.13163114      -0.25692585       0.00001765       0.26120454       0.13692367      -0.00000517      -0.00000457      -0.00001689      -0.12839147      -0.00000964       0.00001033       0.19526079       0.00001711      -0.00001739      -0.29244002      -0.28499698       0.05396827      -0.00002182      -0.14217064      -0.22123064       0.00000915       0.00002006      -0.00003705      -0.61807004       0.00398675      -0.11100080      -0.00001066      -0.00000379       0.00004175       0.61239598       0.29541506       0.14904564      -0.00004484       0.00000089      -0.00000079       0.02215083       0.00001379      -0.00002130      -0.36238215      -0.26130287      -0.34744879       0.00001759      -0.16359992      -0.21875292       0.00000853       0.48278358       0.30632025       0.00000288      -0.69820572      -0.29455875      -0.00001027       0.02592478      -0.00170746      -0.00000047       0.14231053       0.07013525      -0.00000169       0.00000177       0.00000092      -0.00802904      -0.04305025      -0.02800456      -0.00000805      -0.00005238      -0.00002959       0.00527918      -0.00992177      -0.02082881       0.00000470      -0.09364233      -0.31960744       0.00001265       0.00000102      -0.00000173       0.00073319      -0.00001375       0.00002477       0.00369220      -0.00147123       0.00050098      -0.00000003       0.05798142      -0.10653127       0.00000944       0.00263952       0.00228123       0.00000018      -0.29272474       0.53003730      -0.00004083       0.06111051      -0.10580323       0.00000794       0.37384828      -0.67477344       0.00005153
C        2.20232565       1.21072904       0.00000010       0.00000000       0.00000064      -0.00163317       0.00000376      -0.00000455      -0.03036321      -0.17854881       0.21668266      -0.00000111      -0.00000537       0.00002404       0.31873323       0.13163731      -0.25693466       0.00002510       0.25133789       0.13850348      -0.00000696      -0.00000009       0.00000014       0.25757433      -0.00000038       0.00000026       0.01732631      -0.00001027       0.00000881       0.15158778       0.13399870      -0.08703780       0.00001304      -0.19513550      -0.13125230      -0.00000206       0.00000013       0.00000124       0.01471269       0.11134166       0.06340881       0.00000288      -0.00000205       0.00000127      -0.03023449      -0.09497275       0.02562032      -0.00000832      -0.00000859       0.00000933       0.11557687       0.00000568      -0.00000408      -0.08465415       0.10623428       0.24745484      -0.00001057      -0.05345672       0.10850493      -0.00000744       0.04664189      -0.02488755       0.00000462       0.00622164       0.02293161      -0.00000181       0.01072908       0.02900301      -0.00000043       0.06860267       0.11099975       0.00000030       0.00000067      -0.00000013      -0.00200733      -0.02778977       0.00307268      -0.00007572      -0.00004478       0.00000457       0.06540240       0.05772947      -0.01541711       0.00001262      -0.05318765      -0.03068693      -0.00000054       0.00000055      -0.00000131      -0.00638645      -0.00000883       0.00002204       0.08727075      -0.00118803       0.00286338      -0.00000153       0.02733381      -0.05831576       0.00003092      -0.00000593      -0.00203408       0.00000061      -0.04197136       0.00514487       0.00000124      -0.04932291       0.00929947       0.00000061      -0.03079494       0.01285262      -0.00000109
C       -0.85695440      -1.20043729       0.00000722       0.00000014      -0.00000024      -0.00923303      -0.00000311       0.00000435       0.01633727       0.16758870      -0.22243930      -0.00000102      -0.00000401       0.00002213       0.24922850       0.13161823      -0.25690841       0.00002061       0.26227070       0.12463071      -0.00000594      -0.00000027      -0.00000116      -0.30214224      -0.00000018       0.00000057       0.01828406      -0.00000660       0.00001084       0.14867095       0.12293809      -0.09287306       0.00001257       0.19936508       0.12648929       0.00000007       0.00000171      -0.00000039      -0.01526793      -0.14599208      -0.05166386       0.00000016      -0.00000333      -0.00000220      -0.06812771      -0.05111669       0.04280996       0.00000149       0.00000110      -0.00000124      -0.07839776       0.00000358      -0.00000650      -0.09855629       0.11449488       0.15934526      -0.00000230       0.01352189      -0.16686128       0.00001043       0.05423512      -0.03820069       0.00000307      -0.00115186      -0.00966331      -0.00000001      -0.09094559      -0.10727753       0.00000456       0.02782329       0.02415416      -0.00000094       0.00000140       0.00000440       0.06661808       0.03954585      -0.04696205       0.00000071       0.00004190      -0.00004973       0.00082544       0.01353395      -0.02021955       0.00000051       0.05749175       0.03690425       0.00000028      -0.00001106       0.00000358       0.08720454      -0.00000070       0.00000033       0.00603910       0.06206633      -0.00382978       0.00001505       0.00325967      -0.00116040       0.00000110      -0.03474246       0.05627525      -0.00000170      -0.00989519       0.01287362      -0.00000069       0.01524023      -0.01978951       0.00000121      -0.01040151       0.01321791      -0.00000087
H       -0.26221713      -2.11075093       0.00002871       0.00000160      -0.00000146      -0.10083381      -0.00000212      -0.00000281      -0.31356864       0.29843930      -0.13695535      -0.00001907      -0.00000332       0.00002146       0.20189117       0.13161165      -0.25690993       0.00001646       0.26639292       0.12732349      -0.00000494      -0.00000156      -0.00000491      -0.42507244      -0.00000404      -0.00001339      -0.46092315      -0.00002245       0.00000669       0.40859597       0.38165451       0.07589547       0.00002524       0.43622519       0.27931690       0.00000177      -0.00001008      -0.00000438       0.12476939       0.32998317       0.24392942      -0.00000037       0.00001315       0.00001284       0.11444621       0.29543610       0.25465887      -0.00000927       0.00000138       0.00000446       0.15024402      -0.00001978      -0.00001408       0.17756247       0.18647989       0.20179481      -0.00001051      -0.43823424      -0.43602967       0.00000258      -0.07133306      -0.09829992       0.00000167       0.03023229       0.00699931       0.00000197       0.44795246       0.27634825      -0.00002255      -0.11353140      -0.07232474       0.00000564      -0.00001157      -0.00002387      -0.74144767       0.32463142       0.19171584       0.00000742       0.00034882       0.00020606      -0.01951584       0.12125078       0.07063811      -0.00000541      -0.12631981      -0.07943893      -0.00000047       0.00000335      -0.00001053       0.04451319       0.00000101      -0.00000196       0.00328012       0.00989503       0.02265317       0.00000683      -0.00872374       0.01488923       0.00000021       0.50696671      -0.75174654       0.00001735       0.10840449      -0.15660925       0.00000344      -0.16761756       0.24684595      -0.00000529       0.11204245      -0.17035354       0.00000360
H       -1.50119134      -1.20156679      -0.87929876      -0.02303303       0.07152781       0.00719866      -0.17624020       0.20376276       0.14522469       0.16774672      -0.31496176       0.00000388      -0.01064561       0.03879589       0.25697373       0.13161377      -0.25689506       0.00002285       0.26227039       0.12170681      -0.00000323       0.04469295       0.14787579      -0.33509333      -0.42645717       0.20307413       0.33428655      -0.05010974      -0.27979909       0.18619182       0.12571172      -0.28365084      -0.00125232       0.20358506      -0.05481926      -0.00326009      -0.11391921      -0.19771224       0.07280009      -0.09943192      -0.44381123      -0.02122794      -0.18587509      -0.25240040       0.08167167      -0.00992895      -0.21165675      -0.02157166      -0.21678520      -0.25634650       0.09842120      -0.26165188      -0.30269846       0.11691153       0.10882198       0.17522959      -0.00415539      -0.04893354       0.11637381       0.03914240       0.02408742       0.20143801       0.01576263       0.03370464       0.01723672      -0.02063229       0.27006357       0.44143258      -0.21934998      -0.07500125      -0.09233370       0.06274402       0.13435837      -0.44453674      -0.07975441      -0.45897194       0.20084171       0.33819019       0.00142173      -0.01437724      -0.00094910      -0.16866345       0.07736011       0.12385643       0.13781233       0.10042534      -0.08918954      -0.43233465       0.00950821      -0.55276834      -0.03076054       0.00063043      -0.03898911      -0.38855873       0.00429256      -0.58670372      -0.01635797      -0.00041000      -0.02564220      -0.04081060       0.02629916      -0.02925833       0.00242432       0.00559240       0.00975410      -0.00472067      -0.00866414      -0.01711482       0.00515842       0.00579635       0.01473797
H       -1.50118034      -1.20152190       0.87932182       0.02303333      -0.07152980       0.00720195       0.17623580      -0.20375123       0.14523305       0.16775775      -0.31498371       0.00000686       0.01063771      -0.03875260       0.25697559       0.13161624      -0.25690146       0.00002016       0.26226953       0.12170837      -0.00000912      -0.04469391      -0.14787921      -0.33508519       0.42646250      -0.20305744       0.33429239       0.05009640       0.27984955       0.18617676       0.12571635      -0.28361181       0.00129065       0.20359152      -0.05480302       0.00327455       0.11392194       0.19773921       0.07278798      -0.09942002      -0.44378820       0.02125639       0.18587247       0.25238663       0.08165780      -0.00994001      -0.21167137       0.02157788       0.21678893       0.25635938       0.09840513       0.26165500       0.30273459       0.11688920       0.10881152       0.17520910       0.00414245      -0.04896213       0.11634832      -0.03915919       0.02407891       0.20142718      -0.01577508       0.03370743       0.01724197       0.02063293       0.27006106       0.44145546       0.21932032      -0.07500127      -0.09234110      -0.06273761      -0.13435838       0.44451594      -0.07977585      -0.45897434       0.20079749      -0.33819282      -0.00240649       0.01480353      -0.00167504      -0.16866530       0.07735731      -0.12385835       0.13780618       0.10042463       0.08918131       0.43246890      -0.00953741      -0.55298764       0.03076896      -0.00063221      -0.03900329      -0.38839960       0.00431917       0.58651413      -0.01634650      -0.00040897       0.02562826      -0.04081412       0.02630081       0.02926249       0.00242078       0.00559217      -0.00975009      -0.00471291      -0.00866355       0.01710598       0.00515262       0.00579598      -0.01473134
H        3.25572914       0.94498411      -0.00002190       0.00001254       0.00000851       0.52323539      -0.00000131      -0.00000267      -0.29312695      -0.14041746       0.36786117      -0.00001593      -0.00000545       0.00002569       0.29507452       0.13163423      -0.25694127       0.00002271       0.25253904       0.14327359      -0.00000640       0.00000126       0.00000457       0.26872609       0.00000050      -0.00000174       0.08015377       0.00000201       0.00004431       0.31679203       0.05729032      -0.39284134       0.00003586      -0.13440191       0.11337077      -0.00001605      -0.00000813      -0.00001928      -0.13589931       0.19650356       0.43324237      -0.00002227      -0.00000249      -0.00001024       0.05742695      -0.21622722      -0.51975074       0.00002985      -0.00003262      -0.00006827      -0.22401015       0.00002018       0.00004138       0.15075487       0.06847284       0.06091775       0.00000206      -0.13669139      -0.29661843       0.00001328       0.09589148       0.20387949      -0.00001435      -0.02095973      -0.06029168       0.00000007      -0.03451666      -0.13223796      -0.00000083      -0.10735463      -0.48483310      -0.00001161       0.00000021      -0.00000214       0.02014265       0.02580358       0.13996196       0.00085952       0.00003440       0.00025671      -0.73842668      -0.08581795      -0.39884144      -0.00016021      -0.07508123      -0.18413483      -0.00000932      -0.00000292       0.00000033      -0.00355338       0.00003578      -0.00000056       0.04759343       0.00227532       0.00049372      -0.00000092      -0.07167183      -0.00305770       0.00001821       0.01060288      -0.00387384       0.00000010       0.58732173      -0.16094955      -0.00001235       0.66308685      -0.18107917      -0.00001412       0.36928893      -0.09932017      -0.00000834
H        2.00139082       1.82229530       0.87905435      -0.38970035       0.25548151      -0.27186601       0.16878549      -0.20007444       0.14737525      -0.26629060       0.18782582       0.00001765       0.01003065      -0.03842018       0.34776801       0.13164083      -0.25692932       0.00002430       0.24855840       0.13758884      -0.00000610      -0.04637114      -0.14681771       0.34910521      -0.03932354       0.04548490      -0.02283457      -0.18613037      -0.19998300       0.24855723       0.31144170      -0.02932479       0.00065966      -0.33926892      -0.17215769      -0.00278925       0.14557211       0.17632194      -0.08047580      -0.12362475       0.00766069      -0.01350626      -0.06791210      -0.10147841       0.03297983       0.29101812       0.10162906       0.02731278       0.26701291       0.43337716      -0.14913693      -0.18076232      -0.30311621       0.10009753       0.29150040       0.25676395       0.01768002       0.27848046       0.14252928       0.03831266      -0.04590182       0.01001423      -0.03648165      -0.07086406      -0.04583906       0.02636839      -0.06835442      -0.10721110       0.06331540      -0.31662067      -0.41684712       0.23119345       0.01286135       0.00026374       0.00192454       0.13484118      -0.12842087       0.12170728      -0.46673629      -0.02279946      -0.07835063      -0.34318058       0.35780977      -0.32982506      -0.00419509       0.00137315       0.00449090      -0.01096643       0.02813717       0.03912881       0.14811459      -0.40570971      -0.55351962       0.00622564      -0.01742444      -0.02774605      -0.12568961       0.36306227       0.58069742      -0.00536172       0.01510332       0.02354325      -0.03514514       0.04493377       0.06170832      -0.03280182       0.03735052       0.04406343      -0.00323700      -0.02603458      -0.05164446
H        2.00134877       1.82229062      -0.87904701       0.38968091      -0.25548062      -0.27188155      -0.16877265       0.20006499       0.14738236      -0.26630908       0.18784216       0.00000009      -0.01004206       0.03846769       0.34776830       0.13163845      -0.25692296       0.00003087       0.24855897       0.13758713      -0.00000900       0.04636979       0.14681648       0.34910221       0.03932320      -0.04548397      -0.02283639       0.18607150       0.19998772       0.24854762       0.31148368      -0.02928780      -0.00062642      -0.33929479      -0.17218735       0.00277792      -0.14554871      -0.17630905      -0.08046630      -0.12366058       0.00761153       0.01349535       0.06792893       0.10147921       0.03297125       0.29107512       0.10171594      -0.02729764      -0.26693168      -0.43333772      -0.14912870       0.18071953       0.30309916       0.10009264       0.29153333       0.25682087      -0.01767720       0.27851221       0.14258290      -0.03831135      -0.04590944       0.00998680       0.03647474      -0.07086289      -0.04583262      -0.02636404      -0.06835308      -0.10721018      -0.06331219      -0.31661478      -0.41685389      -0.23118277      -0.01286713      -0.00026026       0.00192916       0.13374851      -0.12847331      -0.12152973       0.46720310       0.02235771      -0.07879047      -0.34295751       0.35782489       0.32980630      -0.00416307       0.00139010      -0.00448520       0.01096288      -0.02812162       0.03910378      -0.14804792       0.40543586      -0.55308054       0.00623228      -0.01743821       0.02776503      -0.12582386       0.36335062      -0.58109120      -0.00536490       0.01510911      -0.02355097      -0.03514875       0.04493546      -0.06171018      -0.03280208       0.03734692      -0.04405734      -0.00322888      -0.02604925       0.05166509
12
Properties=species:S:1:pos:R:3:xtb2_normal_mode_displacements_0:R:3:xtb2_normal_mode_displacements_1:R:3:xtb2_normal_mode_displacements_2:R:3:xtb2_normal_mode_displacements_3:R:3:xtb2_normal_mode_displacements_4:R:3:xtb2_normal_mode_displacements_5:R:3:xtb2_normal_mode_displacements_6:R:3:xtb2_normal_mode_displacements_7:R:3:xtb2_normal_mode_displacements_8:R:3:xtb2_normal_mode_displacements_9:R:3:xtb2_normal_mode_displacements_10:R:3:xtb2_normal_mode_displacements_11:R:3:xtb2_normal_mode_displacements_12:R:3:xtb2_normal_mode_displacements_13:R:3:xtb2_normal_mode_displacements_14:R:3:xtb2_normal_mode_displacements_15:R:3:xtb2_normal_mode_displacements_16:R:3:xtb2_normal_mode_displacements_17:R:3:xtb2_normal_mode_displacements_18:R:3:xtb2_normal_mode_displacements_19:R:3:xtb2_normal_mode_displacements_20:R:3:xtb2_normal_mode_displacements_21:R:3:xtb2_normal_mode_displacements_22:R:3:xtb2_normal_mode_displacements_23:R:3:xtb2_normal_mode_displacements_24:R:3:xtb2_normal_mode_displacements_25:R:3:xtb2_normal_mode_displacements_26:R:3:xtb2_normal_mode_displacements_27:R:3:xtb2_normal_mode_displacements_28:R:3:xtb2_normal_mode_displacements_29:R:3:xtb2_normal_mode_displacements_30:R:3:xtb2_normal_mode_displacements_31:R:3:xtb2_normal_mode_displacements_32:R:3:xtb2_normal_mode_displacements_33:R:3:xtb2_normal_mode_displacements_34:R:3:xtb2_normal_mode_displacements_35:R:3 butene=T reference=T _ConfigSet_loc=" / 0 / 0" xtb2_normal_mode_frequencies="-0.020805350599677645 -0.0012520287572930428 -0.0008057157555249398 -4.5646307594914854e-05 -1.544271636343004e-06 2.0070667760733657e-05 0.0007792852814774499 0.020007895212821186 0.030827178750387946 0.03379472539721994 0.06147046924481604 0.08694186489268312 0.11505838067939451 0.12427408663486034 0.12511644226890012 0.12691071213329774 0.13044988333222152 0.1391633835201524 0.14195157959406351 0.15814728268344924 0.161403301474211 0.17400433576408564 0.17465713361699353 0.18358617565523236 0.18451272219423798 0.18453214420220326 0.18474813708238022 0.21569178023426594 0.3710653957286146 0.37201378110443734 0.3729909202179395 0.3734662167474916 0.37645626122957077 0.3776743594254655 0.3781192902563234 0.379676400084026" pbc="F F F"
C       -0.23801015      -0.02473790      -0.00003511      -0.00000219       0.00000336       0.06748807      -0.00000559       0.00000916       0.12212985      -0.00614295      -0.09692342       0.00000606      -0.00000501       0.00002407       0.29206110       0.13163050      -0.25691768       0.00002379       0.25677989       0.12859307      -0.00000667       0.00000163       0.00000451      -0.05405953       0.00000299      -0.00000375      -0.09743338       0.00001026      -0.00001152      -0.17628007      -0.15989949       0.12211245      -0.00001533       0.01200567       0.17692842      -0.00000709       0.00000474      -0.00000819      -0.14139153      -0.03346491       0.08690673      -0.00000724       0.00000078      -0.00000096      -0.00122224       0.02641785      -0.04570419       0.00000106      -0.00000306       0.00000180       0.09531005      -0.00000429       0.00000765       0.10139995      -0.13752430      -0.17267510       0.00000252       0.02319795       0.20679016      -0.00001116      -0.08855670      -0.02362058      -0.00000150       0.03987610      -0.08167344       0.00000626       0.00648479       0.02268491      -0.00000070      -0.01422627       0.00480927      -0.00000080      -0.00000038      -0.00000073       0.01148138      -0.00519387      -0.00462566       0.00000003      -0.00000407      -0.00000610      -0.00033160       0.00415898       0.00502256      -0.00000046      -0.55546241      -0.07424367      -0.00001728      -0.00000071      -0.00000031       0.00179280      -0.00000007      -0.00000116      -0.00012193       0.00139831       0.00495002       0.00000006      -0.00092282       0.00483815      -0.00000038       0.01637363      -0.02591311       0.00000203      -0.02077876       0.02980516      -0.00000235       0.02835169      -0.04467337       0.00000347      -0.01735652       0.03406534      -0.00000244
C        1.58906596       0.01744815       0.00003507       0.00000248      -0.00000404      -0.04758114       0.00000487      -0.00000777      -0.14330379      -0.00260990       0.09284680      -0.00000763      -0.00000435       0.00002238       0.27498941       0.13163092      -0.25692797       0.00002184       0.25689140       0.13459017      -0.00000618      -0.00000103      -0.00000460       0.00726094      -0.00000254       0.00000268       0.04453399       0.00001204      -0.00001492      -0.22198727      -0.15883473       0.12881301      -0.00001835      -0.01985896      -0.16863397       0.00000972      -0.00000683       0.00000684       0.14939235       0.04389036      -0.09101025       0.00000701       0.00000317      -0.00000415      -0.03581761       0.01362209      -0.00488053       0.00000802       0.00000432      -0.00000772      -0.09567610      -0.00000354       0.00000275       0.08222047      -0.13336065      -0.28197104       0.00001021       0.02611065      -0.13426829       0.00000769      -0.10191264      -0.01324020      -0.00000399      -0.02938487       0.08349719      -0.00000518       0.01089938      -0.00969461       0.00000117      -0.00933056      -0.01438009       0.00000074      -0.00000062       0.00000017       0.00060586       0.02338722       0.01169582      -0.00001147       0.00002412       0.00001731       0.01055505       0.00971860      -0.01258606       0.00000254       0.54379582       0.07123561       0.00001871       0.00000018       0.00000008       0.00022403       0.00000188      -0.00000098       0.00148631      -0.00126622       0.00038203      -0.00000002      -0.00611694       0.00606801      -0.00000014      -0.00118201      -0.00189184       0.00000006       0.02560914      -0.04094076       0.00000331      -0.00864247       0.00685988      -0.00000064      -0.03178962       0.05562476      -0.00000426
H       -0.48793920       1.00481902      -0.00009868      -0.00000799       0.00001294       0.24073037      -0.00001597       0.00002701       0.44309473      -0.14260435      -0.17165367       0.00002342      -0.00000633       0.00002689       0.34029384       0.13164507      -0.25690780       0.00002798       0.25246350       0.12622903      -0.00000768       0.00000521       0.00001637       0.08091855       0.00000958      -0.00001007      -0.23001709       0.00001094      -0.00000788      -0.13405564      -0.29191125       0.04257858      -0.00001480       0.15496007       0.24046056      -0.00000564      -0.00002502       0.00002685       0.55583124       0.20434738       0.21511290      -0.00001770      -0.00000401       0.00004071       0.59991421       0.32683170       0.12343428      -0.00002387       0.00001952      -0.00001364      -0.28563826       0.00000848      -0.00002303      -0.40478354      -0.19671369      -0.20921844       0.00000259       0.16774450       0.26476721      -0.00000327       0.60384886       0.35623080       0.00000292       0.57782630       0.22519915       0.00001200      -0.09406086      -0.03294611      -0.00000456      -0.00650655       0.00895070      -0.00000115       0.00000264      -0.00000174      -0.02891030      -0.01490400      -0.00968248      -0.00000381      -0.00001750      -0.00001322       0.00144163      -0.01658667      -0.00653431       0.00000042       0.11550566       0.34134069      -0.00001428      -0.00000065       0.00000129      -0.00120519      -0.00000607       0.00001240       0.00191578       0.02681777      -0.04941507       0.00000311       0.02596940      -0.05214566       0.00000450      -0.19482453       0.35551819      -0.00002604       0.22291874      -0.39554666       0.00002940      -0.31027083       0.55823993      -0.00004127       0.21747286      -0.39443643       0.00002913
H        1.84203199      -1.00946224       0.00010091       0.00000784      -0.00001563      -0.24023474       0.00001594      -0.00002628      -0.46365068       0.13404370       0.16680055      -0.00002494      -0.00000297       0.00001944       0.22671233       0.13163114      -0.25692585       0.00001765       0.26120454       0.13692367      -0.00000517      -0.00000457      -0.00001689      -0.12839147      -0.00000964       0.00001033       0.19526079       0.00001711      -0.00001739      -0.29244002      -0.28499698       0.05396827      -0.00002182      -0.14217064      -0.22123064       0.00000915       0.00002006      -0.00003705      -0.61807004       0.00398675      -0.11100080      -0.00001066      -0.00000379       0.00004175       0.61239598       0.29541506       0.14904564      -0.00004484       0.00000089      -0.00000079       0.02215083       0.00001379      -0.00002130      -0.36238215      -0.26130287      -0.34744879       0.00001759      -0.16359992      -0.21875292       0.00000853       0.48278358       0.30632025       0.00000288      -0.69820572      -0.29455875      -0.00001027       0.02592478      -0.00170746      -0.00000047       0.14231053       0.07013525      -0.00000169       0.00000177       0.00000092      -0.00802904      -0.04305025      -0.02800456      -0.00000805      -0.00005238      -0.00002959       0.00527918      -0.00992177      -0.02082881       0.00000470      -0.09364233      -0.31960744       0.00001265       0.00000102      -0.00000173       0.00073319      -0.00001375       0.00002477       0.00369220      -0.00147123       0.00050098      -0.00000003       0.05798142      -0.10653127       0.00000944       0.00263952       0.00228123       0.00000018      -0.29272474       0.53003730      -0.00004083       0.06111051      -0.10580323       0.00000794       0.37384828      -0.67477344       0.00005153
C        2.17790427       1.19663898      -0.00000015       0.00000000       0.00000064      -0.00163317       0.00000376      -0.00000455      -0.03036321      -0.17854881       0.21668266      -0.00000111      -0.00000537       0.00002404       0.31873323       0.13163731      -0.25693466       0.00002510       0.25133789       0.13850348      -0.00000696      -0.00000009       0.00000014       0.25757433      -0.00000038       0.00000026       0.01732631      -0.00001027       0.00000881       0.15158778       0.13399870      -0.08703780       0.00001304      -0.19513550      -0.13125230      -0.00000206       0.00000013       0.00000124       0.01471269       0.11134166       0.06340881       0.00000288      -0.00000205       0.00000127      -0.03023449      -0.09497275       0.02562032      -0.00000832      -0.00000859       0.00000933       0.11557687       0.00000568      -0.00000408      -0.08465415       0.10623428       0.24745484      -0.00001057      -0.05345672       0.10850493      -0.00000744       0.04664189      -0.02488755       0.00000462       0.00622164       0.02293161      -0.00000181       0.01072908       0.02900301      -0.00000043       0.06860267       0.11099975       0.00000030       0.00000067      -0.00000013      -0.00200733      -0.02778977       0.00307268      -0.00007572      -0.00004478       0.00000457       0.06540240       0.05772947      -0.01541711       0.00001262      -0.05318765      -0.03068693      -0.00000054       0.00000055      -0.00000131      -0.00638645      -0.00000883       0.00002204       0.08727075      -0.00118803       0.00286338      -0.00000153       0.02733381      -0.05831576       0.00003092      -0.00000593      -0.00203408       0.00000061      -0.04197136       0.00514487       0.00000124      -0.04932291       0.00929947       0.00000061      -0.03079494       0.01285262      -0.00000109
C       -0.83055677      -1.18349251       0.00000735       0.00000014      -0.00000024      -0.00923303      -0.00000311       0.00000435       0.01633727       0.16758870      -0.22243930      -0.00000102      -0.00000401       0.00002213       0.24922850       0.13161823      -0.25690841       0.00002061       0.26227070       0.12463071      -0.00000594      -0.00000027      -0.00000116      -0.30214224      -0.00000018       0.00000057       0.01828406      -0.00000660       0.00001084       0.14867095       0.12293809      -0.09287306       0.00001257       0.19936508       0.12648929       0.00000007       0.00000171      -0.00000039      -0.01526793      -0.14599208      -0.05166386       0.00000016      -0.00000333      -0.00000220      -0.06812771      -0.05111669       0.04280996       0.00000149       0.00000110      -0.00000124      -0.07839776       0.00000358      -0.00000650      -0.09855629       0.11449488       0.15934526      -0.00000230       0.01352189      -0.16686128       0.00001043       0.05423512      -0.03820069       0.00000307      -0.00115186      -0.00966331      -0.00000001      -0.09094559      -0.10727753       0.00000456       0.02782329       0.02415416      -0.00000094       0.00000140       0.00000440       0.06661808       0.03954585      -0.04696205       0.00000071       0.00004190      -0.00004973       0.00082544       0.01353395      -0.02021955       0.00000051       0.05749175       0.03690425       0.00000028      -0.00001106       0.00000358       0.08720454      -0.00000070       0.00000033       0.00603910       0.06206633      -0.00382978       0.00001505       0.00325967      -0.00116040       0.00000110      -0.03474246       0.05627525      -0.00000170      -0.00989519       0.01287362      -0.00000069       0.01524023      -0.01978951       0.00000121      -0.01040151       0.01321791      -0.00000087
H       -0.27901954      -2.12131749       0.00002865       0.00000160      -0.00000146      -0.10083381      -0.00000212      -0.00000281      -0.31356864       0.29843930      -0.13695535      -0.00001907      -0.00000332       0.00002146       0.20189117       0.13161165      -0.25690993       0.00001646       0.26639292       0.12732349      -0.00000494      -0.00000156      -0.00000491      -0.42507244      -0.00000404      -0.00001339      -0.46092315      -0.00002245       0.00000669       0.40859597       0.38165451       0.07589547       0.00002524       0.43622519       0.27931690       0.00000177      -0.00001008      -0.00000438       0.12476939       0.32998317       0.24392942      -0.00000037       0.00001315       0.00001284       0.11444621       0.29543610       0.25465887      -0.00000927       0.00000138       0.00000446       0.15024402      -0.00001978      -0.00001408       0.17756247       0.18647989       0.20179481      -0.00001051      -0.43823424      -0.43602967       0.00000258      -0.07133306      -0.09829992       0.00000167       0.03023229       0.00699931       0.00000197       0.44795246       0.27634825      -0.00002255      -0.11353140      -0.07232474       0.00000564      -0.00001157      -0.00002387      -0.74144767       0.32463142       0.19171584       0.00000742       0.00034882       0.00020606      -0.01951584       0.12125078       0.07063811      -0.00000541      -0.12631981      -0.07943893      -0.00000047       0.00000335      -0.00001053       0.04451319       0.00000101      -0.00000196       0.00328012       0.00989503       0.02265317       0.00000683      -0.00872374       0.01488923       0.00000021       0.50696671      -0.75174654       0.00001735       0.10840449      -0.15660925       0.00000344      -0.16761756       0.24684595      -0.00000529       0.11204245      -0.17035354       0.00000360
H       -1.48286025      -1.18820873      -0.89116229      -0.02303303       0.07152781       0.00719866      -0.17624020       0.20376276       0.14522469       0.16774672      -0.31496176       0.00000388      -0.01064561       0.03879589       0.25697373       0.13161377      -0.25689506       0.00002285       0.26227039       0.12170681      -0.00000323       0.04469295       0.14787579      -0.33509333      -0.42645717       0.20307413       0.33428655      -0.05010974      -0.27979909       0.18619182       0.12571172      -0.28365084      -0.00125232       0.20358506      -0.05481926      -0.00326009      -0.11391921      -0.19771224       0.07280009      -0.09943192      -0.44381123      -0.02122794      -0.18587509      -0.25240040       0.08167167      -0.00992895      -0.21165675      -0.02157166      -0.21678520      -0.25634650       0.09842120      -0.26165188      -0.30269846       0.11691153       0.10882198       0.17522959      -0.00415539      -0.04893354       0.11637381       0.03914240       0.02408742       0.20143801       0.01576263       0.03370464       0.01723672      -0.02063229       0.27006357       0.44143258      -0.21934998      -0.07500125      -0.09233370       0.06274402       0.13435837      -0.44453674      -0.07975441      -0.45897194       0.20084171       0.33819019       0.00142173      -0.01437724      -0.00094910      -0.16866345       0.07736011       0.12385643       0.13781233       0.10042534      -0.08918954      -0.43233465       0.00950821      -0.55276834      -0.03076054       0.00063043      -0.03898911      -0.38855873       0.00429256      -0.58670372      -0.01635797      -0.00041000      -0.02564220      -0.04081060       0.02629916      -0.02925833       0.00242432       0.00559240       0.00975410      -0.00472067      -0.00866414      -0.01711482       0.00515842       0.00579635       0.01473797
H       -1.48285007      -1.18816393       0.89118426       0.02303333      -0.07152980       0.00720195       0.17623580      -0.20375123       0.14523305       0.16775775      -0.31498371       0.00000686       0.01063771      -0.03875260       0.25697559       0.13161624      -0.25690146       0.00002016       0.26226953       0.12170837      -0.00000912      -0.04469391      -0.14787921      -0.33508519       0.42646250      -0.20305744       0.33429239       0.05009640       0.27984955       0.18617676       0.12571635      -0.28361181       0.00129065       0.20359152      -0.05480302       0.00327455       0.11392194       0.19773921       0.07278798      -0.09942002      -0.44378820       0.02125639       0.18587247       0.25238663       0.08165780      -0.00994001      -0.21167137       0.02157788       0.21678893       0.25635938       0.09840513       0.26165500       0.30273459       0.11688920       0.10881152       0.17520910       0.00414245      -0.04896213       0.11634832      -0.03915919       0.02407891       0.20142718      -0.01577508       0.03370743       0.01724197       0.02063293       0.27006106       0.44145546       0.21932032      -0.07500127      -0.09234110      -0.06273761      -0.13435838       0.44451594      -0.07977585      -0.45897434       0.20079749      -0.33819282      -0.00240649       0.01480353      -0.00167504      -0.16866530       0.07735731      -0.12385835       0.13780618       0.10042463       0.08918131       0.43246890      -0.00953741      -0.55298764       0.03076896      -0.00063221      -0.03900329      -0.38839960       0.00431917       0.58651413      -0.01634650      -0.00040897       0.02562826      -0.04081412       0.02630081       0.02926249       0.00242078       0.00559217      -0.00975009      -0.00471291      -0.00866355       0.01710598       0.00515262       0.00579598      -0.01473134
H        3.24574222       0.92049144      -0.00002314       0.00001254       0.00000851       0.52323539      -0.00000131      -0.00000267      -0.29312695      -0.14041746       0.36786117      -0.00001593      -0.00000545       0.00002569       0.29507452       0.13163423      -0.25694127       0.00002271       0.25253904       0.14327359      -0.00000640       0.00000126       0.00000457       0.26872609       0.00000050      -0.00000174       0.08015377       0.00000201       0.00004431       0.31679203       0.05729032      -0.39284134       0.00003586      -0.13440191       0.11337077      -0.00001605      -0.00000813      -0.00001928      -0.13589931       0.19650356       0.43324237      -0.00002227      -0.00000249      -0.00001024       0.05742695      -0.21622722      -0.51975074       0.00002985      -0.00003262      -0.00006827      -0.22401015       0.00002018       0.00004138       0.15075487       0.06847284       0.06091775       0.00000206      -0.13669139      -0.29661843       0.00001328       0.09589148       0.20387949      -0.00001435      -0.02095973      -0.06029168       0.00000007      -0.03451666      -0.13223796      -0.00000083      -0.10735463      -0.48483310      -0.00001161       0.00000021      -0.00000214       0.02014265       0.02580358       0.13996196       0.00085952       0.00003440       0.00025671      -0.73842668      -0.08581795      -0.39884144      -0.00016021      -0.07508123      -0.18413483      -0.00000932      -0.00000292       0.00000033      -0.00355338       0.00003578      -0.00000056       0.04759343       0.00227532       0.00049372      -0.00000092      -0.07167183      -0.00305770       0.00001821       0.01060288      -0.00387384       0.00000010       0.58732173      -0.16094955      -0.00001235       0.66308685      -0.18107917      -0.00001412       0.36928893      -0.09932017      -0.00000834
H        2.00083281       1.82247795       0.87965171      -0.38970035       0.25548151      -0.27186601       0.16878549      -0.20007444       0.14737525      -0.26629060       0.18782582       0.00001765       0.01003065      -0.03842018       0.34776801       0.13164083      -0.25692932       0.00002430       0.24855840       0.13758884      -0.00000610      -0.04637114      -0.14681771       0.34910521      -0.03932354       0.04548490      -0.02283457      -0.18613037      -0.19998300       0.24855723       0.31144170      -0.02932479       0.00065966      -0.33926892      -0.17215769      -0.00278925       0.14557211       0.17632194      -0.08047580      -0.12362475       0.00766069      -0.01350626      -0.06791210      -0.10147841       0.03297983       0.29101812       0.10162906       0.02731278       0.26701291       0.43337716      -0.14913693      -0.18076232      -0.30311621       0.10009753       0.29150040       0.25676395       0.01768002       0.27848046       0.14252928       0.03831266      -0.04590182       0.01001423      -0.03648165      -0.07086406      -0.04583906       0.02636839      -0.06835442      -0.10721110       0.06331540      -0.31662067      -0.41684712       0.23119345       0.01286135       0.00026374       0.00192454       0.13484118      -0.12842087       0.12170728      -0.46673629      -0.02279946      -0.07835063      -0.34318058       0.35780977      -0.32982506      -0.00419509       0.00137315       0.00449090      -0.01096643       0.02813717       0.03912881       0.14811459      -0.40570971      -0.55351962       0.00622564      -0.01742444      -0.02774605      -0.12568961       0.36306227       0.58069742      -0.00536172       0.01510332       0.02354325      -0.03514514       0.04493377       0.06170832      -0.03280182       0.03735052       0.04406343      -0.00323700      -0.02603458      -0.05164446
H        2.00079502       1.82247552      -0.87964361       0.38968091      -0.25548062      -0.27188155      -0.16877265       0.20006499       0.14738236      -0.26630908       0.18784216       0.00000009      -0.01004206       0.03846769       0.34776830       0.13163845      -0.25692296       0.00003087       0.24855897       0.13758713      -0.00000900       0.04636979       0.14681648       0.34910221       0.03932320      -0.04548397      -0.02283639       0.18607150       0.19998772       0.24854762       0.31148368      -0.02928780      -0.00062642      -0.33929479      -0.17218735       0.00277792      -0.14554871      -0.17630905      -0.08046630      -0.12366058       0.00761153       0.01349535       0.06792893       0.10147921       0.03297125       0.29107512       0.10171594      -0.02729764      -0.26693168      -0.43333772      -0.14912870       0.18071953       0.30309916       0.10009264       0.29153333       0.25682087      -0.01767720       0.27851221       0.14258290      -0.03831135      -0.04590944       0.00998680       0.03647474      -0.07086289      -0.04583262      -0.02636404      -0.06835308      -0.10721018      -0.06331219      -0.31661478      -0.41685389      -0.23118277      -0.01286713      -0.00026026       0.00192916       0.13374851      -0.12847331      -0.12152973       0.46720310       0.02235771      -0.07879047      -0.34295751       0.35782489       0.32980630      -0.00416307       0.00139010      -0.00448520       0.01096288      -0.02812162       0.03910378      -0.14804792       0.40543586      -0.55308054       0.00623228      -0.01743821       0.02776503      -0.12582386       0.36335062      -0.58109120      -0.00536490       0.01510911      -0.02355097      -0.03514875       0.04493546      -0.06171018      -0.03280208       0.03734692      -0.04405734      -0.00322888      -0.02604925       0.05166509
12
Properties=species:S:1:pos:R:3:xtb2_normal_mode_displacements_0:R:3:xtb2_normal_mode_displacements_1:R:3:xtb2_normal_mode_displacements_2:R:3:xtb2_normal_mode_displacements_3:R:3:xtb2_normal_mode_displacements_4:R:3:xtb2_normal_mode_displacements_5:R:3:xtb2_normal_mode_displacements_6:R:3:xtb2_normal_mode_displacements_7:R:3:xtb2_normal_mode_displacements_8:R:3:xtb2_normal_mode_displacements_9:R:3:xtb2_normal_mode_displacements_10:R:3:xtb2_normal_mode_displacements_11:R:3:xtb2_normal_mode_displacements_12:R:3:xtb2_normal_mode_displacements_13:R:3:xtb2_normal_mode_displacements_14:R:3:xtb2_normal_mode_displacements_15:R:3:xtb2_normal_mode_displacements_16:R:3:xtb2_normal_mode_displacements_17:R:3:xtb2_normal_mode_displacements_18:R:3:xtb2_normal_mode_displacements_19:R:3:xtb2_normal_mode_displacements_20:R:3:xtb2_normal_mode_displacements_21:R:3:xtb2_normal_mode_displacements_22:R:3:xtb2_normal_mode_displacements_23:R:3:xtb2_normal_mode_displacements_24:R:3:xtb2_normal_mode_displacements_25:R:3:xtb2_normal_mode_displacements_26:R:3:xtb2_normal_mode_displacements_27:R:3:xtb2_normal_mode_displacements_28:R:3:xtb2_normal_mode_displacements_29:R:3:xtb2_normal_mode_displacements_30:R:3:xtb2_normal_mode_displacements_31:R:3:xtb2_normal_mode_displacements_32:R:3:xtb2_normal_mode_displacements_33:R:3:xtb2_normal_mode_displacements_34:R:3:xtb2_normal_mode_displacements_35:R:3 butene=T reference=T _ConfigSet_loc=" / 0 / 0" xtb2_normal_mode_frequencies="-0.020805350599677645 -0.0012520287572930428 -0.0008057157555249398 -4.5646307594914854e-05 -1.544271636343004e-06 2.0070667760733657e-05 0.0007792852814774499 0.020007895212821186 0.030827178750387946 0.03379472539721994 0.06147046924481604 0.08694186489268312 0.11505838067939451 0.12427408663486034 0.12511644226890012 0.12691071213329774 0.13044988333222152 0.1391633835201524 0.14195157959406351 0.15814728268344924 0.161403301474211 0.17400433576408564 0.17465713361699353 0.18358617565523236 0.18451272219423798 0.18453214420220326 0.18474813708238022 0.21569178023426594 0.3710653957286146 0.37201378110443734 0.3729909202179395 0.3734662167474916 0.37645626122957077 0.3776743594254655 0.3781192902563234 0.379676400084026" pbc="F F F"
C       -0.45422552      -0.05363747      -0.00004184      -0.00000219       0.00000336       0.06748807      -0.00000559       0.00000916       0.12212985      -0.00614295      -0.09692342       0.00000606      -0.00000501       0.00002407       0.29206110       0.13163050      -0.25691768       0.00002379       0.25677989       0.12859307      -0.00000667       0.00000163       0.00000451      -0.05405953       0.00000299      -0.00000375      -0.09743338       0.00001026      -0.00001152      -0.17628007      -0.15989949       0.12211245      -0.00001533       0.01200567       0.17692842      -0.00000709       0.00000474      -0.00000819      -0.14139153      -0.03346491       0.08690673      -0.00000724       0.00000078      -0.00000096      -0.00122224       0.02641785      -0.04570419       0.00000106      -0.00000306       0.00000180       0.09531005      -0.00000429       0.00000765       0.10139995      -0.13752430      -0.17267510       0.00000252       0.02319795       0.20679016      -0.00001116      -0.08855670      -0.02362058      -0.00000150       0.03987610      -0.08167344       0.00000626       0.00648479       0.02268491      -0.00000070      -0.01422627       0.00480927      -0.00000080      -0.00000038      -0.00000073       0.01148138      -0.00519387      -0.00462566       0.00000003      -0.00000407      -0.00000610      -0.00033160       0.00415898       0.00502256      -0.00000046      -0.55546241      -0.07424367      -0.00001728      -0.00000071      -0.00000031       0.00179280      -0.00000007      -0.00000116      -0.00012193       0.00139831       0.00495002       0.00000006      -0.00092282       0.00483815      -0.00000038       0.01637363      -0.02591311       0.00000203      -0.02077876       0.02980516      -0.00000235       0.02835169      -0.04467337       0.00000347      -0.01735652       0.03406534      -0.00000244
C        1.80074008       0.04517682       0.00004235       0.00000248      -0.00000404      -0.04758114       0.00000487      -0.00000777      -0.14330379      -0.00260990       0.09284680      -0.00000763      -0.00000435       0.00002238       0.27498941       0.13163092      -0.25692797       0.00002184       0.25689140       0.13459017      -0.00000618      -0.00000103      -0.00000460       0.00726094      -0.00000254       0.00000268       0.04453399       0.00001204      -0.00001492      -0.22198727      -0.15883473       0.12881301      -0.00001835      -0.01985896      -0.16863397       0.00000972      -0.00000683       0.00000684       0.14939235       0.04389036      -0.09101025       0.00000701       0.00000317      -0.00000415      -0.03581761       0.01362209      -0.00488053       0.00000802       0.00000432      -0.00000772      -0.09567610      -0.00000354       0.00000275       0.08222047      -0.13336065      -0.28197104       0.00001021       0.02611065      -0.13426829       0.00000769      -0.10191264      -0.01324020      -0.00000399      -0.02938487       0.08349719      -0.00000518       0.01089938      -0.00969461       0.00000117      -0.00933056      -0.01438009       0.00000074      -0.00000062       0.00000017       0.00060586       0.02338722       0.01169582      -0.00001147       0.00002412       0.00001731       0.01055505       0.00971860      -0.01258606       0.00000254       0.54379582       0.07123561       0.00001871       0.00000018       0.00000008       0.00022403       0.00000188      -0.00000098       0.00148631      -0.00126622       0.00038203      -0.00000002      -0.00611694       0.00606801      -0.00000014      -0.00118201      -0.00189184       0.00000006       0.02560914      -0.04094076       0.00000331      -0.00864247       0.00685988      -0.00000064      -0.03178962       0.05562476      -0.00000426
H       -0.47491426       1.04331015      -0.00010029      -0.00000799       0.00001294       0.24073037      -0.00001597       0.00002701       0.44309473      -0.14260435      -0.17165367       0.00002342      -0.00000633       0.00002689       0.34029384       0.13164507      -0.25690780       0.00002798       0.25246350       0.12622903      -0.00000768       0.00000521       0.00001637       0.08091855       0.00000958      -0.00001007      -0.23001709       0.00001094      -0.00000788      -0.13405564      -0.29191125       0.04257858      -0.00001480       0.15496007       0.24046056      -0.00000564      -0.00002502       0.00002685       0.55583124       0.20434738       0.21511290      -0.00001770      -0.00000401       0.00004071       0.59991421       0.32683170       0.12343428      -0.00002387       0.00001952      -0.00001364      -0.28563826       0.00000848      -0.00002303      -0.40478354      -0.19671369      -0.20921844       0.00000259       0.16774450       0.26476721      -0.00000327       0.60384886       0.35623080       0.00000292       0.57782630       0.22519915       0.00001200      -0.09406086      -0.03294611      -0.00000456      -0.00650655       0.00895070      -0.00000115       0.00000264      -0.00000174      -0.02891030      -0.01490400      -0.00968248      -0.00000381      -0.00001750      -0.00001322       0.00144163      -0.01658667      -0.00653431       0.00000042       0.11550566       0.34134069      -0.00001428      -0.00000065       0.00000129      -0.00120519      -0.00000607       0.00001240       0.00191578       0.02681777      -0.04941507       0.00000311       0.02596940      -0.05214566       0.00000450      -0.19482453       0.35551819      -0.00002604       0.22291874      -0.39554666       0.00002940      -0.31027083       0.55823993      -0.00004127       0.21747286      -0.39443643       0.00002913
H        1.83147245      -1.04550262       0.00010234       0.00000784      -0.00001563      -0.24023474       0.00001594      -0.00002628      -0.46365068       0.13404370       0.16680055      -0.00002494      -0.00000297       0.00001944       0.22671233       0.13163114      -0.25692585       0.00001765       0.26120454       0.13692367      -0.00000517      -0.00000457      -0.00001689      -0.12839147      -0.00000964       0.00001033       0.19526079       0.00001711      -0.00001739      -0.29244002      -0.28499698       0.05396827      -0.00002182      -0.14217064      -0.22123064       0.00000915       0.00002006      -0.00003705      -0.61807004       0.00398675      -0.11100080      -0.00001066      -0.00000379       0.00004175       0.61239598       0.29541506       0.14904564      -0.00004484       0.00000089      -0.00000079       0.02215083       0.00001379      -0.00002130      -0.36238215      -0.26130287      -0.34744879       0.00001759      -0.16359992      -0.21875292       0.00000853       0.48278358       0.30632025       0.00000288      -0.69820572      -0.29455875      -0.00001027       0.02592478      -0.00170746      -0.00000047       0.14231053       0.07013525      -0.00000169       0.00000177       0.00000092      -0.00802904      -0.04305025      -0.02800456      -0.00000805      -0.00005238      -0.00002959       0.00527918      -0.00992177      -0.02082881       0.00000470      -0.09364233      -0.31960744       0.00001265       0.00000102      -0.00000173       0.00073319      -0.00001375       0.00002477       0.00369220      -0.00147123       0.00050098      -0.00000003       0.05798142      -0.10653127       0.00000944       0.00263952       0.00228123       0.00000018      -0.29272474       0.53003730      -0.00004083       0.06111051      -0.10580323       0.00000794       0.37384828      -0.67477344       0.00005153
C        2.15720082       1.18469400      -0.00000036       0.00000000       0.00000064      -0.00163317       0.00000376      -0.00000455      -0.03036321      -0.17854881       0.21668266      -0.00000111      -0.00000537       0.00002404       0.31873323       0.13163731      -0.25693466       0.00002510       0.25133789       0.13850348      -0.00000696      -0.00000009       0.00000014       0.25757433      -0.00000038       0.00000026       0.01732631      -0.00001027       0.00000881       0.15158778       0.13399870      -0.08703780       0.00001304      -0.19513550      -0.13125230      -0.00000206       0.00000013       0.00000124       0.01471269       0.11134166       0.06340881       0.00000288      -0.00000205       0.00000127      -0.03023449      -0.09497275       0.02562032      -0.00000832      -0.00000859       0.00000933       0.11557687       0.00000568      -0.00000408      -0.08465415       0.10623428       0.24745484      -0.00001057      -0.05345672       0.10850493      -0.00000744       0.04664189      -0.02488755       0.00000462       0.00622164       0.02293161      -0.00000181       0.01072908       0.02900301      -0.00000043       0.06860267       0.11099975       0.00000030       0.00000067      -0.00000013      -0.00200733      -0.02778977       0.00307268      -0.00007572      -0.00004478       0.00000457       0.06540240       0.05772947      -0.01541711       0.00001262      -0.05318765      -0.03068693      -0.00000054       0.00000055      -0.00000131      -0.00638645      -0.00000883       0.00002204       0.08727075      -0.00118803       0.00286338      -0.00000153       0.02733381      -0.05831576       0.00003092      -0.00000593      -0.00203408       0.00000061      -0.04197136       0.00514487       0.00000124      -0.04932291       0.00929947       0.00000061      -0.03079494       0.01285262      -0.00000109
C       -0.80817794      -1.16912743       0.00000746       0.00000014      -0.00000024      -0.00923303      -0.00000311       0.00000435       0.01633727       0.16758870      -0.22243930      -0.00000102      -0.00000401       0.00002213       0.24922850       0.13161823      -0.25690841       0.00002061       0.26227070       0.12463071      -0.00000594      -0.00000027      -0.00000116      -0.30214224      -0.00000018       0.00000057       0.01828406      -0.00000660       0.00001084       0.14867095       0.12293809      -0.09287306       0.00001257       0.19936508       0.12648929       0.00000007       0.00000171      -0.00000039      -0.01526793      -0.14599208      -0.05166386       0.00000016      -0.00000333      -0.00000220      -0.06812771      -0.05111669       0.04280996       0.00000149       0.00000110      -0.00000124      -0.07839776       0.00000358      -0.00000650      -0.09855629       0.11449488       0.15934526      -0.00000230       0.01352189      -0.16686128       0.00001043       0.05423512      -0.03820069       0.00000307      -0.00115186      -0.00966331      -0.00000001      -0.09094559      -0.10727753       0.00000456       0.02782329       0.02415416      -0.00000094       0.00000140       0.00000440       0.06661808       0.03954585      -0.04696205       0.00000071       0.00004190      -0.00004973       0.00082544       0.01353395      -0.02021955       0.00000051       0.05749175       0.03690425       0.00000028      -0.00001106       0.00000358       0.08720454      -0.00000070       0.00000033       0.00603910       0.06206633      -0.00382978       0.00001505       0.00325967      -0.00116040       0.00000110      -0.03474246       0.05627525      -0.00000170      -0.00989519       0.01287362      -0.00000069       0.01524023      -0.01978951       0.00000121      -0.01040151       0.01321791      -0.00000087
H       -0.29326394      -2.13027538       0.00002859       0.00000160      -0.00000146      -0.10083381      -0.00000212      -0.00000281      -0.31356864       0.29843930      -0.13695535      -0.00001907      -0.00000332       0.00002146       0.20189117       0.13161165      -0.25690993       0.00001646       0.26639292       0.12732349      -0.00000494      -0.00000156      -0.00000491      -0.42507244      -0.00000404      -0.00001339      -0.46092315      -0.00002245       0.00000669       0.40859597       0.38165451       0.07589547       0.00002524       0.43622519       0.27931690       0.00000177      -0.00001008      -0.00000438       0.12476939       0.32998317       0.24392942      -0.00000037       0.00001315       0.00001284       0.11444621       0.29543610       0.25465887      -0.00000927       0.00000138       0.00000446       0.15024402      -0.00001978      -0.00001408       0.17756247       0.18647989       0.20179481      -0.00001051      -0.43823424      -0.43602967       0.00000258      -0.07133306      -0.09829992       0.00000167       0.03023229       0.00699931       0.00000197       0.44795246       0.27634825      -0.00002255      -0.11353140      -0.07232474       0.00000564      -0.00001157      -0.00002387      -0.74144767       0.32463142       0.19171584       0.00000742       0.00034882       0.00020606      -0.01951584       0.12125078       0.07063811      -0.00000541      -0.12631981      -0.07943893      -0.00000047       0.00000335      -0.00001053       0.04451319       0.00000101      -0.00000196       0.00328012       0.00989503       0.02265317       0.00000683      -0.00872374       0.01488923       0.00000021       0.50696671      -0.75174654       0.00001735       0.10840449      -0.15660925       0.00000344      -0.16761756       0.24684595      -0.00000529       0.11204245      -0.17035354       0.00000360
H       -1.46731991      -1.17688431      -0.90121971      -0.02303303       0.07152781       0.00719866      -0.17624020       0.20376276       0.14522469       0.16774672      -0.31496176       0.00000388      -0.01064561       0.03879589       0.25697373       0.13161377      -0.25689506       0.00002285       0.26227039       0.12170681      -0.00000323       0.04469295       0.14787579      -0.33509333      -0.42645717       0.20307413       0.33428655      -0.05010974      -0.27979909       0.18619182       0.12571172      -0.28365084      -0.00125232       0.20358506      -0.05481926      -0.00326009      -0.11391921      -0.19771224       0.07280009      -0.09943192      -0.44381123      -0.02122794      -0.18587509      -0.25240040       0.08167167      -0.00992895      -0.21165675      -0.02157166      -0.21678520      -0.25634650       0.09842120      -0.26165188      -0.30269846       0.11691153       0.10882198       0.17522959      -0.00415539      -0.04893354       0.11637381       0.03914240       0.02408742       0.20143801       0.01576263       0.03370464       0.01723672      -0.02063229       0.27006357       0.44143258      -0.21934998      -0.07500125      -0.09233370       0.06274402       0.13435837      -0.44453674      -0.07975441      -0.45897194       0.20084171       0.33819019       0.00142173      -0.01437724      -0.00094910      -0.16866345       0.07736011       0.12385643       0.13781233       0.10042534      -0.08918954      -0.43233465       0.00950821      -0.55276834      -0.03076054       0.00063043      -0.03898911      -0.38855873       0.00429256      -0.58670372      -0.01635797      -0.00041000      -0.02564220      -0.04081060       0.02629916      -0.02925833       0.00242432       0.00559240       0.00975410      -0.00472067      -0.00866414      -0.01711482       0.00515842       0.00579635       0.01473797
H       -1.46731042      -1.17683960       0.90124075       0.02303333      -0.07152980       0.00720195       0.17623580      -0.20375123       0.14523305       0.16775775      -0.31498371       0.00000686       0.01063771      -0.03875260       0.25697559       0.13161624      -0.25690146       0.00002016       0.26226953       0.12170837      -0.00000912      -0.04469391      -0.14787921      -0.33508519       0.42646250      -0.20305744       0.33429239       0.05009640       0.27984955       0.18617676       0.12571635      -0.28361181       0.00129065       0.20359152      -0.05480302       0.00327455       0.11392194       0.19773921       0.07278798      -0.09942002      -0.44378820       0.02125639       0.18587247       0.25238663       0.08165780      -0.00994001      -0.21167137       0.02157788       0.21678893       0.25635938       0.09840513       0.26165500       0.30273459       0.11688920       0.10881152       0.17520910       0.00414245      -0.04896213       0.11634832      -0.03915919       0.02407891       0.20142718      -0.01577508       0.03370743       0.01724197       0.02063293       0.27006106       0.44145546       0.21932032      -0.07500127      -0.09234110      -0.06273761      -0.13435838       0.44451594      -0.07977585      -0.45897434       0.20079749      -0.33819282      -0.00240649       0.01480353      -0.00167504      -0.16866530       0.07735731      -0.12385835       0.13780618       0.10042463       0.08918131       0.43246890      -0.00953741      -0.55298764       0.03076896      -0.00063221      -0.03900329      -0.38839960       0.00431917       0.58651413      -0.01634650      -0.00040897       0.02562826      -0.04081412       0.02630081       0.02926249       0.00242078       0.00559217      -0.00975009      -0.00471291      -0.00866355       0.01710598       0.00515262       0.00579598      -0.01473134
H        3.23727572       0.89972756      -0.00002419       0.00001254       0.00000851       0.52323539      -0.00000131      -0.00000267      -0.29312695      -0.14041746       0.36786117      -0.00001593      -0.00000545       0.00002569       0.29507452       0.13163423      -0.25694127       0.00002271       0.25253904       0.14327359      -0.00000640       0.00000126       0.00000457       0.26872609       0.00000050      -0.00000174       0.08015377       0.00000201       0.00004431       0.31679203       0.05729032      -0.39284134       0.00003586      -0.13440191       0.11337077      -0.00001605      -0.00000813      -0.00001928      -0.13589931       0.19650356       0.43324237      -0.00002227      -0.00000249      -0.00001024       0.05742695      -0.21622722      -0.51975074       0.00002985      -0.00003262      -0.00006827      -0.22401015       0.00002018       0.00004138       0.15075487       0.06847284       0.06091775       0.00000206      -0.13669139      -0.29661843       0.00001328       0.09589148       0.20387949      -0.00001435      -0.02095973      -0.06029168       0.00000007      -0.03451666      -0.13223796      -0.00000083      -0.10735463      -0.48483310      -0.00001161       0.00000021      -0.00000214       0.02014265       0.02580358       0.13996196       0.00085952       0.00003440       0.00025671      -0.73842668      -0.08581795      -0.39884144      -0.00016021      -0.07508123      -0.18413483      -0.00000932      -0.00000292       0.00000033      -0.00355338       0.00003578      -0.00000056       0.04759343       0.00227532       0.00049372      -0.00000092      -0.07167183      -0.00305770       0.00001821       0.01060288      -0.00387384       0.00000010       0.58732173      -0.16094955      -0.00001235       0.66308685      -0.18107917      -0.00001412       0.36928893      -0.09932017      -0.00000834
H        2.00035975       1.82263279       0.88015812      -0.38970035       0.25548151      -0.27186601       0.16878549      -0.20007444       0.14737525      -0.26629060       0.18782582       0.00001765       0.01003065      -0.03842018       0.34776801       0.13164083      -0.25692932       0.00002430       0.24855840       0.13758884      -0.00000610      -0.04637114      -0.14681771       0.34910521      -0.03932354       0.04548490      -0.02283457      -0.18613037      -0.19998300       0.24855723       0.31144170      -0.02932479       0.00065966      -0.33926892      -0.17215769      -0.00278925       0.14557211       0.17632194      -0.08047580      -0.12362475       0.00766069      -0.01350626      -0.06791210      -0.10147841       0.03297983       0.29101812       0.10162906       0.02731278       0.26701291       0.43337716      -0.14913693      -0.18076232      -0.30311621       0.10009753       0.29150040       0.25676395       0.01768002       0.27848046       0.14252928       0.03831266      -0.04590182       0.01001423      -0.03648165      -0.07086406      -0.04583906       0.02636839      -0.06835442      -0.10721110       0.06331540      -0.31662067      -0.41684712       0.23119345       0.01286135       0.00026374       0.00192454       0.13484118      -0.12842087       0.12170728      -0.46673629      -0.02279946      -0.07835063      -0.34318058       0.35780977      -0.32982506      -0.00419509       0.00137315       0.00449090      -0.01096643       0.02813717       0.03912881       0.14811459      -0.40570971      -0.55351962       0.00622564      -0.01742444      -0.02774605      -0.12568961       0.36306227       0.58069742      -0.00536172       0.01510332       0.02354325      -0.03514514       0.04493377       0.06170832      -0.03280182       0.03735052       0.04406343      -0.00323700      -0.02603458      -0.05164446
H        2.00032557       1.82263228      -0.88014938       0.38968091      -0.25548062      -0.27188155      -0.16877265       0.20006499       0.14738236      -0.26630908       0.18784216       0.00000009      -0.01004206       0.03846769       0.34776830       0.13163845      -0.25692296       0.00003087       0.24855897       0.13758713      -0.00000900       0.04636979       0.14681648       0.34910221       0.03932320      -0.04548397      -0.02283639       0.18607150       0.19998772       0.24854762       0.31148368      -0.02928780      -0.00062642      -0.33929479      -0.17218735       0.00277792      -0.14554871      -0.17630905      -0.08046630      -0.12366058       0.00761153       0.01349535       0.06792893       0.10147921       0.03297125       0.29107512       0.10171594      -0.02729764      -0.26693168      -0.43333772      -0.14912870       0.18071953       0.30309916       0.10009264       0.29153333       0.25682087      -0.01767720       0.27851221       0.14258290      -0.03831135      -0.04590944       0.00998680       0.03647474      -0.07086289      -0.04583262      -0.02636404      -0.06835308      -0.10721018      -0.06331219      -0.31661478      -0.41685389      -0.23118277      -0.01286713      -0.00026026       0.00192916       0.13374851      -0.12847331      -0.12152973       0.46720310       0.02235771      -0.07879047      -0.34295751       0.35782489       0.32980630      -0.00416307       0.00139010      -0.00448520       0.01096288      -0.02812162       0.03910378      -0.14804792       0.40543586      -0.55308054       0.00623228      -0.01743821       0.02776503      -0.12582386       0.36335062      -0.58109120      -0.00536490       0.01510911      -0.02355097      -0.03514875       0.04493546      -0.06171018      -0.03280208       0.03734692      -0.04405734      -0.00322888      -0.02604925       0.05166509
12
Properties=species:S:1:pos:R:3:xtb2_normal_mode_displacements_0:R:3:xtb2_normal_mode_displacements_1:R:3:xtb2_normal_mode_displacements_2:R:3:xtb2_normal_mode_displacements_3:R:3:xtb2_normal_mode_displacements_4:R:3:xtb2_normal_mode_displacements_5:R:3:xtb2_normal_mode_displacements_6:R:3:xtb2_normal_mode_displacements_7:R:3:xtb2_normal_mode_displacements_8:R:3:xtb2_normal_mode_displacements_9:R:3:xtb2_normal_mode_displacements_10:R:3:xtb2_normal_mode_displacements_11:R:3:xtb2_normal_mode_displacements_12:R:3:xtb2_normal_mode_displacements_13:R:3:xtb2_normal_mode_displacements_14:R:3:xtb2_normal_mode_displacements_15:R:3:xtb2_normal_mode_displacements_16:R:3:xtb2_normal_mode_displacements_17:R:3:xtb2_normal_mode_displacements_18:R:3:xtb2_normal_mode_displacements_19:R:3:xtb2_normal_mode_displacements_20:R:3:xtb2_normal_mode_displacements_21:R:3:xtb2_normal_mode_displacements_22:R:3:xtb2_normal_mode_displacements_23:R:3:xtb2_normal_mode_displacements_24:R:3:xtb2_normal_mode_displacements_25:R:3:xtb2_normal_mode_displacements_26:R:3:xtb2_normal_mode_displacements_27:R:3:xtb2_normal_mode_displacements_28:R:3:xtb2_normal_mode_displacements_29:R:3:xtb2_normal_mode_displacements_30:R:3:xtb2_normal_mode_displacements_31:R:3:xtb2_normal_mode_displacements_32:R:3:xtb2_normal_mode_displacements_33:R:3:xtb2_normal_mode_displacements_34:R:3:xtb2_normal_mode_displacements_35:R:3 butene=T reference=T _ConfigSet_loc=" / 0 / 0" xtb2_normal_mode_frequencies="-0.020805350599677645 -0.0012520287572930428 -0.0008057157555249398 -4.5646307594914854e-05 -1.544271636343004e-06 2.0070667760733657e-05 0.0007792852814774499 0.020007895212821186 0.030827178750387946 0.03379472539721994 0.06147046924481604 0.08694186489268312 0.11505838067939451 0.12427408663486034 0.12511644226890012 0.12691071213329774 0.13044988333222152 0.1391633835201524 0.14195157959406351 0.15814728268344924 0.161403301474211 0.17400433576408564 0.17465713361699353 0.18358617565523236 0.18451272219423798 0.18453214420220326 0.18474813708238022 0.21569178023426594 0.3710653957286146 0.37201378110443734 0.3729909202179395 0.3734662167474916 0.37645626122957077 0.3776743594254655 0.3781192902563234 0.379676400084026" pbc="F F F"
C       -0.59869601      -0.07294754      -0.00004633      -0.00000219       0.00000336       0.06748807      -0.00000559       0.00000916       0.12212985      -0.00614295      -0.09692342       0.00000606      -0.00000501       0.00002407       0.29206110       0.13163050      -0.25691768       0.00002379       0.25677989       0.12859307      -0.00000667       0.00000163       0.00000451      -0.05405953       0.00000299      -0.00000375      -0.09743338       0.00001026      -0.00001152      -0.17628007      -0.15989949       0.12211245      -0.00001533       0.01200567       0.17692842      -0.00000709       0.00000474      -0.00000819      -0.14139153      -0.03346491       0.08690673      -0.00000724       0.00000078      -0.00000096      -0.00122224       0.02641785      -0.04570419       0.00000106      -0.00000306       0.00000180       0.09531005      -0.00000429       0.00000765       0.10139995      -0.13752430      -0.17267510       0.00000252       0.02319795       0.20679016      -0.00001116      -0.08855670      -0.02362058      -0.00000150       0.03987610      -0.08167344       0.00000626       0.00648479       0.02268491      -0.00000070      -0.01422627       0.00480927      -0.00000080      -0.00000038      -0.00000073       0.01148138      -0.00519387      -0.00462566       0.00000003      -0.00000407      -0.00000610      -0.00033160       0.00415898       0.00502256      -0.00000046      -0.55546241      -0.07424367      -0.00001728      -0.00000071      -0.00000031       0.00179280      -0.00000007      -0.00000116      -0.00012193       0.00139831       0.00495002       0.00000006      -0.00092282       0.00483815      -0.00000038       0.01637363      -0.02591311       0.00000203      -0.02077876       0.02980516      -0.00000235       0.02835169      -0.04467337       0.00000347      -0.01735652       0.03406534      -0.00000244
C        1.94217620       0.06370452       0.00004722       0.00000248      -0.00000404      -0.04758114       0.00000487      -0.00000777      -0.14330379      -0.00260990       0.09284680      -0.00000763      -0.00000435       0.00002238       0.27498941       0.13163092      -0.25692797       0.00002184       0.25689140       0.13459017      -0.00000618      -0.00000103      -0.00000460       0.00726094      -0.00000254       0.00000268       0.04453399       0.00001204      -0.00001492      -0.22198727      -0.15883473       0.12881301      -0.00001835      -0.01985896      -0.16863397       0.00000972      -0.00000683       0.00000684       0.14939235       0.04389036      -0.09101025       0.00000701       0.00000317      -0.00000415      -0.03581761       0.01362209      -0.00488053       0.00000802       0.00000432      -0.00000772      -0.09567610      -0.00000354       0.00000275       0.08222047      -0.13336065      -0.28197104       0.00001021       0.02611065      -0.13426829       0.00000769      -0.10191264      -0.01324020      -0.00000399      -0.02938487       0.08349719      -0.00000518       0.01089938      -0.00969461       0.00000117      -0.00933056      -0.01438009       0.00000074      -0.00000062       0.00000017       0.00060586       0.02338722       0.01169582      -0.00001147       0.00002412       0.00001731       0.01055505       0.00971860      -0.01258606       0.00000254       0.54379582       0.07123561       0.00001871       0.00000018       0.00000008       0.00022403       0.00000188      -0.00000098       0.00148631      -0.00126622       0.00038203      -0.00000002      -0.00611694       0.00606801      -0.00000014      -0.00118201      -0.00189184       0.00000006       0.02560914      -0.04094076       0.00000331      -0.00864247       0.00685988      -0.00000064      -0.03178962       0.05562476      -0.00000426
H       -0.46621127       1.06902910      -0.00010137      -0.00000799       0.00001294       0.24073037      -0.00001597       0.00002701       0.44309473      -0.14260435      -0.17165367       0.00002342      -0.00000633       0.00002689       0.34029384       0.13164507      -0.25690780       0.00002798       0.25246350       0.12622903      -0.00000768       0.00000521       0.00001637       0.08091855       0.00000958      -0.00001007      -0.23001709       0.00001094      -0.00000788      -0.13405564      -0.29191125       0.04257858      -0.00001480       0.15496007       0.24046056      -0.00000564      -0.00002502       0.00002685       0.55583124       0.20434738       0.21511290      -0.00001770      -0.00000401       0.00004071       0.59991421       0.32683170       0.12343428      -0.00002387       0.00001952      -0.00001364      -0.28563826       0.00000848      -0.00002303      -0.40478354      -0.19671369      -0.20921844       0.00000259       0.16774450       0.26476721      -0.00000327       0.60384886       0.35623080       0.00000292       0.57782630       0.22519915       0.00001200      -0.09406086      -0.03294611      -0.00000456      -0.00650655       0.00895070      -0.00000115       0.00000264      -0.00000174      -0.02891030      -0.01490400      -0.00968248      -0.00000381      -0.00001750      -0.00001322       0.00144163      -0.01658667      -0.00653431       0.00000042       0.11550566       0.34134069      -0.00001428      -0.00000065       0.00000129      -0.00120519      -0.00000607       0.00001240       0.00191578       0.02681777      -0.04941507       0.00000311       0.02596940      -0.05214566       0.00000450      -0.19482453       0.35551819      -0.00002604       0.22291874      -0.39554666       0.00002940      -0.31027083       0.55823993      -0.00004127       0.21747286      -0.39443643       0.00002913
H        1.82441680      -1.06958404       0.00010329       0.00000784      -0.00001563      -0.24023474       0.00001594      -0.00002628      -0.46365068       0.13404370       0.16680055      -0.00002494      -0.00000297       0.00001944       0.22671233       0.13163114      -0.25692585       0.00001765       0.26120454       0.13692367      -0.00000517      -0.00000457      -0.00001689      -0.12839147      -0.00000964       0.00001033       0.19526079       0.00001711      -0.00001739      -0.29244002      -0.28499698       0.05396827      -0.00002182      -0.14217064      -0.22123064       0.00000915       0.00002006      -0.00003705      -0.61807004       0.00398675      -0.11100080      -0.00001066      -0.00000379       0.00004175       0.61239598       0.29541506       0.14904564      -0.00004484       0.00000089      -0.00000079       0.02215083       0.00001379      -0.00002130      -0.36238215      -0.26130287      -0.34744879       0.00001759      -0.16359992      -0.21875292       0.00000853       0.48278358       0.30632025       0.00000288      -0.69820572      -0.29455875      -0.00001027       0.02592478      -0.00170746      -0.00000047       0.14231053       0.07013525      -0.00000169       0.00000177       0.00000092      -0.00802904      -0.04305025      -0.02800456      -0.00000805      -0.00005238      -0.00002959       0.00527918      -0.00992177      -0.02082881       0.00000470      -0.09364233      -0.31960744       0.00001265       0.00000102      -0.00000173       0.00073319      -0.00001375       0.00002477       0.00369220      -0.00147123       0.00050098      -0.00000003       0.05798142      -0.10653127       0.00000944       0.00263952       0.00228123       0.00000018      -0.29272474       0.53003730      -0.00004083       0.06111051      -0.10580323       0.00000794       0.37384828      -0.67477344       0.00005153
C        2.14336722       1.17671262      -0.00000050       0.00000000       0.00000064      -0.00163317       0.00000376      -0.00000455      -0.03036321      -0.17854881       0.21668266      -0.00000111      -0.00000537       0.00002404       0.31873323       0.13163731      -0.25693466       0.00002510       0.25133789       0.13850348      -0.00000696      -0.00000009       0.00000014       0.25757433      -0.00000038       0.00000026       0.01732631      -0.00001027       0.00000881       0.15158778       0.13399870      -0.08703780       0.00001304      -0.19513550      -0.13125230      -0.00000206       0.00000013       0.00000124       0.01471269       0.11134166       0.06340881       0.00000288      -0.00000205       0.00000127      -0.03023449      -0.09497275       0.02562032      -0.00000832      -0.00000859       0.00000933       0.11557687       0.00000568      -0.00000408      -0.08465415       0.10623428       0.24745484      -0.00001057      -0.05345672       0.10850493      -0.00000744       0.04664189      -0.02488755       0.00000462       0.00622164       0.02293161      -0.00000181       0.01072908       0.02900301      -0.00000043       0.06860267       0.11099975       0.00000030       0.00000067      -0.00000013      -0.00200733      -0.02778977       0.00307268      -0.00007572      -0.00004478       0.00000457       0.06540240       0.05772947      -0.01541711       0.00001262      -0.05318765      -0.03068693      -0.00000054       0.00000055      -0.00000131      -0.00638645      -0.00000883       0.00002204       0.08727075      -0.00118803       0.00286338      -0.00000153       0.02733381      -0.05831576       0.00003092      -0.00000593      -0.00203408       0.00000061      -0.04197136       0.00514487       0.00000124      -0.04932291       0.00929947       0.00000061      -0.03079494       0.01285262      -0.00000109
C       -0.79322488      -1.15952898       0.00000753       0.00000014      -0.00000024      -0.00923303      -0.00000311       0.00000435       0.01633727       0.16758870      -0.22243930      -0.00000102      -0.00000401       0.00002213       0.24922850       0.13161823      -0.25690841       0.00002061       0.26227070       0.12463071      -0.00000594      -0.00000027      -0.00000116      -0.30214224      -0.00000018       0.00000057       0.01828406      -0.00000660       0.00001084       0.14867095       0.12293809      -0.09287306       0.00001257       0.19936508       0.12648929       0.00000007       0.00000171      -0.00000039      -0.01526793      -0.14599208      -0.05166386       0.00000016      -0.00000333      -0.00000220      -0.06812771      -0.05111669       0.04280996       0.00000149       0.00000110      -0.00000124      -0.07839776       0.00000358      -0.00000650      -0.09855629       0.11449488       0.15934526      -0.00000230       0.01352189      -0.16686128       0.00001043       0.05423512      -0.03820069       0.00000307      -0.00115186      -0.00966331      -0.00000001      -0.09094559      -0.10727753       0.00000456       0.02782329       0.02415416      -0.00000094       0.00000140       0.00000440       0.06661808       0.03954585      -0.04696205       0.00000071       0.00004190      -0.00004973       0.00082544       0.01353395      -0.02021955       0.00000051       0.05749175       0.03690425       0.00000028      -0.00001106       0.00000358       0.08720454      -0.00000070       0.00000033       0.00603910       0.06206633      -0.00382978       0.00001505       0.00325967      -0.00116040       0.00000110      -0.03474246       0.05627525      -0.00000170      -0.00989519       0.01287362      -0.00000069       0.01524023      -0.01978951       0.00000121      -0.01040151       0.01321791      -0.00000087
H       -0.30278174      -2.13626086       0.00002856       0.00000160      -0.00000146      -0.10083381      -0.00000212      -0.00000281      -0.31356864       0.29843930      -0.13695535      -0.00001907      -0.00000332       0.00002146       0.20189117       0.13161165      -0.25690993       0.00001646       0.26639292       0.12732349      -0.00000494      -0.00000156      -0.00000491      -0.42507244      -0.00000404      -0.00001339      -0.46092315      -0.00002245       0.00000669       0.40859597       0.38165451       0.07589547       0.00002524       0.43622519       0.27931690       0.00000177      -0.00001008      -0.00000438       0.12476939       0.32998317       0.24392942      -0.00000037       0.00001315       0.00001284       0.11444621       0.29543610       0.25465887      -0.00000927       0.00000138       0.00000446       0.15024402      -0.00001978      -0.00001408       0.17756247       0.18647989       0.20179481      -0.00001051      -0.43823424      -0.43602967       0.00000258      -0.07133306      -0.09829992       0.00000167       0.03023229       0.00699931       0.00000197       0.44795246       0.27634825      -0.00002255      -0.11353140      -0.07232474       0.00000564      -0.00001157      -0.00002387      -0.74144767       0.32463142       0.19171584       0.00000742       0.00034882       0.00020606      -0.01951584       0.12125078       0.07063811      -0.00000541      -0.12631981      -0.07943893      -0.00000047       0.00000335      -0.00001053       0.04451319       0.00000101      -0.00000196       0.00328012       0.00989503       0.02265317       0.00000683      -0.00872374       0.01488923       0.00000021       0.50696671      -0.75174654       0.00001735       0.10840449      -0.15660925       0.00000344      -0.16761756       0.24684595      -0.00000529       0.11204245      -0.17035354       0.00000360
H       -1.45693618      -1.16931758      -0.90793986      -0.02303303       0.07152781       0.00719866      -0.17624020       0.20376276       0.14522469       0.16774672      -0.31496176       0.00000388      -0.01064561       0.03879589       0.25697373       0.13161377      -0.25689506       0.00002285       0.26227039       0.12170681      -0.00000323       0.04469295       0.14787579      -0.33509333      -0.42645717       0.20307413       0.33428655      -0.05010974      -0.27979909       0.18619182       0.12571172      -0.28365084      -0.00125232       0.20358506      -0.05481926      -0.00326009      -0.11391921      -0.19771224       0.07280009      -0.09943192      -0.44381123      -0.02122794      -0.18587509      -0.25240040       0.08167167      -0.00992895      -0.21165675      -0.02157166      -0.21678520      -0.25634650       0.09842120      -0.26165188      -0.30269846       0.11691153       0.10882198       0.17522959      -0.00415539      -0.04893354       0.11637381       0.03914240       0.02408742       0.20143801       0.01576263       0.03370464       0.01723672      -0.02063229       0.27006357       0.44143258      -0.21934998      -0.07500125      -0.09233370       0.06274402       0.13435837      -0.44453674      -0.07975441      -0.45897194       0.20084171       0.33819019       0.00142173      -0.01437724      -0.00094910      -0.16866345       0.07736011       0.12385643       0.13781233       0.10042534      -0.08918954      -0.43233465       0.00950821      -0.55276834      -0.03076054       0.00063043      -0.03898911      -0.38855873       0.00429256      -0.58670372      -0.01635797      -0.00041000      -0.02564220      -0.04081060       0.02629916      -0.02925833       0.00242432       0.00559240       0.00975410      -0.00472067      -0.00866414      -0.01711482       0.00515842       0.00579635       0.01473797
H       -1.45692716      -1.16927291       0.90796028       0.02303333      -0.07152980       0.00720195       0.17623580      -0.20375123       0.14523305       0.16775775      -0.31498371       0.00000686       0.01063771      -0.03875260       0.25697559       0.13161624      -0.25690146       0.00002016       0.26226953       0.12170837      -0.00000912      -0.04469391      -0.14787921      -0.33508519       0.42646250      -0.20305744       0.33429239       0.05009640       0.27984955       0.18617676       0.12571635      -0.28361181       0.00129065       0.20359152      -0.05480302       0.00327455       0.11392194       0.19773921       0.07278798      -0.09942002      -0.44378820       0.02125639       0.18587247       0.25238663       0.08165780      -0.00994001      -0.21167137       0.02157788       0.21678893       0.25635938       0.09840513       0.26165500       0.30273459       0.11688920       0.10881152       0.17520910       0.00414245      -0.04896213       0.11634832      -0.03915919       0.02407891       0.20142718      -0.01577508       0.03370743       0.01724197       0.02063293       0.27006106       0.44145546       0.21932032      -0.07500127      -0.09234110      -0.06273761      -0.13435838       0.44451594      -0.07977585      -0.45897434       0.20079749      -0.33819282      -0.00240649       0.01480353      -0.00167504      -0.16866530       0.07735731      -0.12385835       0.13780618       0.10042463       0.08918131       0.43246890      -0.00953741      -0.55298764       0.03076896      -0.00063221      -0.03900329      -0.38839960       0.00431917       0.58651413      -0.01634650      -0.00040897       0.02562826      -0.04081412       0.02630081       0.02926249       0.00242078       0.00559217      -0.00975009      -0.00471291      -0.00866355       0.01710598       0.00515262       0.00579598      -0.01473134
H        3.23161859       0.88585358      -0.00002489       0.00001254       0.00000851       0.52323539      -0.00000131      -0.00000267      -0.29312695      -0.14041746       0.36786117      -0.00001593      -0.00000545       0.00002569       0.29507452       0.13163423      -0.25694127       0.00002271       0.25253904       0.14327359      -0.00000640       0.00000126       0.00000457       0.26872609       0.00000050      -0.00000174       0.08015377       0.00000201       0.00004431       0.31679203       0.05729032      -0.39284134       0.00003586      -0.13440191       0.11337077      -0.00001605      -0.00000813      -0.00001928      -0.13589931       0.19650356       0.43324237      -0.00002227      -0.00000249      -0.00001024       0.05742695      -0.21622722      -0.51975074       0.00002985      -0.00003262      -0.00006827      -0.22401015       0.00002018       0.00004138       0.15075487       0.06847284       0.06091775       0.00000206      -0.13669139      -0.29661843       0.00001328       0.09589148       0.20387949      -0.00001435      -0.02095973      -0.06029168       0.00000007      -0.03451666      -0.13223796      -0.00000083      -0.10735463      -0.48483310      -0.00001161       0.00000021      -0.00000214       0.02014265       0.02580358       0.13996196       0.00085952       0.00003440       0.00025671      -0.73842668      -0.08581795      -0.39884144      -0.00016021      -0.07508123      -0.18413483      -0.00000932      -0.00000292       0.00000033      -0.00355338       0.00003578      -0.00000056       0.04759343       0.00227532       0.00049372      -0.00000092      -0.07167183      -0.00305770       0.00001821       0.01060288      -0.00387384       0.00000010       0.58732173      -0.16094955      -0.00001235       0.66308685      -0.18107917      -0.00001412       0.36928893      -0.09932017      -0.00000834
H        2.00004367       1.82273625       0.88049650      -0.38970035       0.25548151      -0.27186601       0.16878549      -0.20007444       0.14737525      -0.26629060       0.18782582       0.00001765       0.01003065      -0.03842018       0.34776801       0.13164083      -0.25692932       0.00002430       0.24855840       0.13758884      -0.00000610      -0.04637114      -0.14681771       0.34910521      -0.03932354       0.04548490      -0.02283457      -0.18613037      -0.19998300       0.24855723       0.31144170      -0.02932479       0.00065966      -0.33926892      -0.17215769      -0.00278925       0.14557211       0.17632194      -0.08047580      -0.12362475       0.00766069      -0.01350626      -0.06791210      -0.10147841       0.03297983       0.29101812       0.10162906       0.02731278       0.26701291       0.43337716      -0.14913693      -0.18076232      -0.30311621       0.10009753       0.29150040       0.25676395       0.01768002       0.27848046       0.14252928       0.03831266      -0.04590182       0.01001423      -0.03648165      -0.07086406      -0.04583906       0.02636839      -0.06835442      -0.10721110       0.06331540      -0.31662067      -0.41684712       0.23119345       0.01286135       0.00026374       0.00192454       0.13484118      -0.12842087       0.12170728      -0.46673629      -0.02279946      -0.07835063      -0.34318058       0.35780977      -0.32982506      -0.00419509       0.00137315       0.00449090      -0.01096643       0.02813717       0.03912881       0.14811459      -0.40570971      -0.55351962       0.00622564      -0.01742444      -0.02774605      -0.12568961       0.36306227       0.58069742      -0.00536172       0.01510332       0.02354325      -0.03514514       0.04493377       0.06170832      -0.03280182       0.03735052       0.04406343      -0.00323700      -0.02603458      -0.05164446
H        2.00001190       1.82273702      -0.88048733       0.38968091      -0.25548062      -0.27188155      -0.16877265       0.20006499       0.14738236      -0.26630908       0.18784216       0.00000009      -0.01004206       0.03846769       0.34776830       0.13163845      -0.25692296       0.00003087       0.24855897       0.13758713      -0.00000900       0.04636979       0.14681648       0.34910221       0.03932320      -0.04548397      -0.02283639       0.18607150       0.19998772       0.24854762       0.31148368      -0.02928780      -0.00062642      -0.33929479      -0.17218735       0.00277792      -0.14554871      -0.17630905      -0.08046630      -0.12366058       0.00761153       0.01349535       0.06792893       0.10147921       0.03297125       0.29107512       0.10171594      -0.02729764      -0.26693168      -0.43333772      -0.14912870       0.18071953       0.30309916       0.10009264       0.29153333       0.25682087      -0.01767720       0.27851221       0.14258290      -0.03831135      -0.04590944       0.00998680       0.03647474      -0.07086289      -0.04583262      -0.02636404      -0.06835308      -0.10721018      -0.06331219      -0.31661478      -0.41685389      -0.23118277      -0.01286713      -0.00026026       0.00192916       0.13374851      -0.12847331      -0.12152973       0.46720310       0.02235771      -0.07879047      -0.34295751       0.35782489       0.32980630      -0.00416307       0.00139010      -0.00448520       0.01096288      -0.02812162       0.03910378      -0.14804792       0.40543586      -0.55308054       0.00623228      -0.01743821       0.02776503      -0.12582386       0.36335062      -0.58109120      -0.00536490       0.01510911      -0.02355097      -0.03514875       0.04493546      -0.06171018      -0.03280208       0.03734692      -0.04405734      -0.00322888      -0.02604925       0.05166509
12
Properties=species:S:1:pos:R:3:xtb2_normal_mode_displacements_0:R:3:xtb2_normal_mode_displacements_1:R:3:xtb2_normal_mode_displacements_2:R:3:xtb2_normal_mode_displacements_3:R:3:xtb2_normal_mode_displacements_4:R:3:xtb2_normal_mode_displacements_5:R:3:xtb2_normal_mode_displacements_6:R:3:xtb2_normal_mode_displacements_7:R:3:xtb2_normal_mode_displacements_8:R:3:xtb2_normal_mode_displacements_9:R:3:xtb2_normal_mode_displacements_10:R:3:xtb2_normal_mode_displacements_11:R:3:xtb2_normal_mode_displacements_12:R:3:xtb2_normal_mode_displacements_13:R:3:xtb2_normal_mode_displacements_14:R:3:xtb2_normal_mode_displacements_15:R:3:xtb2_normal_mode_displacements_16:R:3:xtb2_normal_mode_displacements_17:R:3:xtb2_normal_mode_displacements_18:R:3:xtb2_normal_mode_displacements_19:R:3:xtb2_normal_mode_displacements_20:R:3:xtb2_normal_mode_displacements_21:R:3:xtb2_normal_mode_displacements_22:R:3:xtb2_normal_mode_displacements_23:R:3:xtb2_normal_mode_displacements_24:R:3:xtb2_normal_mode_displacements_25:R:3:xtb2_normal_mode_displacements_26:R:3:xtb2_normal_mode_displacements_27:R:3:xtb2_normal_mode_displacements_28:R:3:xtb2_normal_mode_displacements_29:R:3:xtb2_normal_mode_displacements_30:R:3:xtb2_normal_mode_displacements_31:R:3:xtb2_normal_mode_displacements_32:R:3:xtb2_normal_mode_displacements_33:R:3:xtb2_normal_mode_displacements_34:R:3:xtb2_normal_mode_displacements_35:R:3 butene=T reference=T _ConfigSet_loc=" / 0 / 0" xtb2_normal_mode_frequencies="-0.020805350599677645 -0.0012520287572930428 -0.0008057157555249398 -4.5646307594914854e-05 -1.544271636343004e-06 2.0070667760733657e-05 0.0007792852814774499 0.020007895212821186 0.030827178750387946 0.03379472539721994 0.06147046924481604 0.08694186489268312 0.11505838067939451 0.12427408663486034 0.12511644226890012 0.12691071213329774 0.13044988333222152 0.1391633835201524 0.14195157959406351 0.15814728268344924 0.161403301474211 0.17400433576408564 0.17465713361699353 0.18358617565523236 0.18451272219423798 0.18453214420220326 0.18474813708238022 0.21569178023426594 0.3710653957286146 0.37201378110443734 0.3729909202179395 0.3734662167474916 0.37645626122957077 0.3776743594254655 0.3781192902563234 0.379676400084026" pbc="F F F"
C       -0.64942730      -0.07972834      -0.00004791      -0.00000219       0.00000336       0.06748807      -0.00000559       0.00000916       0.12212985      -0.00614295      -0.09692342       0.00000606      -0.00000501       0.00002407       0.29206110       0.13163050      -0.25691768       0.00002379       0.25677989       0.12859307      -0.00000667       0.00000163       0.00000451      -0.05405953       0.00000299      -0.00000375      -0.09743338       0.00001026      -0.00001152      -0.17628007      -0.15989949       0.12211245      -0.00001533       0.01200567       0.17692842      -0.00000709       0.00000474      -0.00000819      -0.14139153      -0.03346491       0.08690673      -0.00000724       0.00000078      -0.00000096      -0.00122224       0.02641785      -0.04570419       0.00000106      -0.00000306       0.00000180       0.09531005      -0.00000429       0.00000765       0.10139995      -0.13752430      -0.17267510       0.00000252       0.02319795       0.20679016      -0.00001116      -0.08855670      -0.02362058      -0.00000150       0.03987610      -0.08167344       0.00000626       0.00648479       0.02268491      -0.00000070      -0.01422627       0.00480927      -0.00000080      -0.00000038      -0.00000073       0.01148138      -0.00519387      -0.00462566       0.00000003      -0.00000407      -0.00000610      -0.00033160       0.00415898       0.00502256      -0.00000046      -0.55546241      -0.07424367      -0.00001728      -0.00000071      -0.00000031       0.00179280      -0.00000007      -0.00000116      -0.00012193       0.00139831       0.00495002       0.00000006      -0.00092282       0.00483815      -0.00000038       0.01637363      -0.02591311       0.00000203      -0.02077876       0.02980516      -0.00000235       0.02835169      -0.04467337       0.00000347      -0.01735652       0.03406534      -0.00000244
C        1.99184196       0.07021059       0.00004893       0.00000248      -0.00000404      -0.04758114       0.00000487      -0.00000777      -0.14330379      -0.00260990       0.09284680      -0.00000763      -0.00000435       0.00002238       0.27498941       0.13163092      -0.25692797       0.00002184       0.25689140       0.13459017      -0.00000618      -0.00000103      -0.00000460       0.00726094      -0.00000254       0.00000268       0.04453399       0.00001204      -0.00001492      -0.22198727      -0.15883473       0.12881301      -0.00001835      -0.01985896      -0.16863397       0.00000972      -0.00000683       0.00000684       0.14939235       0.04389036      -0.09101025       0.00000701       0.00000317      -0.00000415      -0.03581761       0.01362209      -0.00488053       0.00000802       0.00000432      -0.00000772      -0.09567610      -0.00000354       0.00000275       0.08222047      -0.13336065      -0.28197104       0.00001021       0.02611065      -0.13426829       0.00000769      -0.10191264      -0.01324020      -0.00000399      -0.02938487       0.08349719      -0.00000518       0.01089938      -0.00969461       0.00000117      -0.00933056      -0.01438009       0.00000074      -0.00000062       0.00000017       0.00060586       0.02338722       0.01169582      -0.00001147       0.00002412       0.00001731       0.01055505       0.00971860      -0.01258606       0.00000254       0.54379582       0.07123561       0.00001871       0.00000018       0.00000008       0.00022403       0.00000188      -0.00000098       0.00148631      -0.00126622       0.00038203      -0.00000002      -0.00611694       0.00606801      -0.00000014      -0.00118201      -0.00189184       0.00000006       0.02560914      -0.04094076       0.00000331      -0.00864247       0.00685988      -0.00000064      -0.03178962       0.05562476      -0.00000426
H       -0.46315519       1.07806039      -0.00010174      -0.00000799       0.00001294       0.24073037      -0.00001597       0.00002701       0.44309473      -0.14260435      -0.17165367       0.00002342      -0.00000633       0.00002689       0.34029384       0.13164507      -0.25690780       0.00002798       0.25246350       0.12622903      -0.00000768       0.00000521       0.00001637       0.08091855       0.00000958      -0.00001007      -0.23001709       0.00001094      -0.00000788      -0.13405564      -0.29191125       0.04257858      -0.00001480       0.15496007       0.24046056      -0.00000564      -0.00002502       0.00002685       0.55583124       0.20434738       0.21511290      -0.00001770      -0.00000401       0.00004071       0.59991421       0.32683170       0.12343428      -0.00002387       0.00001952      -0.00001364      -0.28563826       0.00000848      -0.00002303      -0.40478354      -0.19671369      -0.20921844       0.00000259       0.16774450       0.26476721      -0.00000327       0.60384886       0.35623080       0.00000292       0.57782630       0.22519915       0.00001200      -0.09406086      -0.03294611      -0.00000456      -0.00650655       0.00895070      -0.00000115       0.00000264      -0.00000174      -0.02891030      -0.01490400      -0.00968248      -0.00000381      -0.00001750      -0.00001322       0.00144163      -0.01658667      -0.00653431       0.00000042       0.11550566       0.34134069      -0.00001428      -0.00000065       0.00000129      -0.00120519      -0.00000607       0.00001240       0.00191578       0.02681777      -0.04941507       0.00000311       0.02596940      -0.05214566       0.00000450      -0.19482453       0.35551819      -0.00002604       0.22291874      -0.39554666       0.00002940      -0.31027083       0.55823993      -0.00004127       0.21747286      -0.39443643       0.00002913
H        1.82193918      -1.07804031       0.00010363       0.00000784      -0.00001563      -0.24023474       0.00001594      -0.00002628      -0.46365068       0.13404370       0.16680055      -0.00002494      -0.00000297       0.00001944       0.22671233       0.13163114      -0.25692585       0.00001765       0.26120454       0.13692367      -0.00000517      -0.00000457      -0.00001689      -0.12839147      -0.00000964       0.00001033       0.19526079       0.00001711      -0.00001739      -0.29244002      -0.28499698       0.05396827      -0.00002182      -0.14217064      -0.22123064       0.00000915       0.00002006      -0.00003705      -0.61807004       0.00398675      -0.11100080      -0.00001066      -0.00000379       0.00004175       0.61239598       0.29541506       0.14904564      -0.00004484       0.00000089      -0.00000079       0.02215083       0.00001379      -0.00002130      -0.36238215      -0.26130287      -0.34744879       0.00001759      -0.16359992      -0.21875292       0.00000853       0.48278358       0.30632025       0.00000288      -0.69820572      -0.29455875      -0.00001027       0.02592478      -0.00170746      -0.00000047       0.14231053       0.07013525      -0.00000169       0.00000177       0.00000092      -0.00802904      -0.04305025      -0.02800456      -0.00000805      -0.00005238      -0.00002959       0.00527918      -0.00992177      -0.02082881       0.00000470      -0.09364233      -0.31960744       0.00001265       0.00000102      -0.00000173       0.00073319      -0.00001375       0.00002477       0.00369220      -0.00147123       0.00050098      -0.00000003       0.05798142      -0.10653127       0.00000944       0.00263952       0.00228123       0.00000018      -0.29272474       0.53003730      -0.00004083       0.06111051      -0.10580323       0.00000794       0.37384828      -0.67477344       0.00005153
C        2.13850950       1.17390994      -0.00000055       0.00000000       0.00000064      -0.00163317       0.00000376      -0.00000455      -0.03036321      -0.17854881       0.21668266      -0.00000111      -0.00000537       0.00002404       0.31873323       0.13163731      -0.25693466       0.00002510       0.25133789       0.13850348      -0.00000696      -0.00000009       0.00000014       0.25757433      -0.00000038       0.00000026       0.01732631      -0.00001027       0.00000881       0.15158778       0.13399870      -0.08703780       0.00001304      -0.19513550      -0.13125230      -0.00000206       0.00000013       0.00000124       0.01471269       0.11134166       0.06340881       0.00000288      -0.00000205       0.00000127      -0.03023449      -0.09497275       0.02562032      -0.00000832      -0.00000859       0.00000933       0.11557687       0.00000568      -0.00000408      -0.08465415       0.10623428       0.24745484      -0.00001057      -0.05345672       0.10850493      -0.00000744       0.04664189      -0.02488755       0.00000462       0.00622164       0.02293161      -0.00000181       0.01072908       0.02900301      -0.00000043       0.06860267       0.11099975       0.00000030       0.00000067      -0.00000013      -0.00200733      -0.02778977       0.00307268      -0.00007572      -0.00004478       0.00000457       0.06540240       0.05772947      -0.01541711       0.00001262      -0.05318765      -0.03068693      -0.00000054       0.00000055      -0.00000131      -0.00638645      -0.00000883       0.00002204       0.08727075      -0.00118803       0.00286338      -0.00000153       0.02733381      -0.05831576       0.00003092      -0.00000593      -0.00203408       0.00000061      -0.04197136       0.00514487       0.00000124      -0.04932291       0.00929947       0.00000061      -0.03079494       0.01285262      -0.00000109
C       -0.78797406      -1.15615846       0.00000756       0.00000014      -0.00000024      -0.00923303      -0.00000311       0.00000435       0.01633727       0.16758870      -0.22243930      -0.00000102      -0.00000401       0.00002213       0.24922850       0.13161823      -0.25690841       0.00002061       0.26227070       0.12463071      -0.00000594      -0.00000027      -0.00000116      -0.30214224      -0.00000018       0.00000057       0.01828406      -0.00000660       0.00001084       0.14867095       0.12293809      -0.09287306       0.00001257       0.19936508       0.12648929       0.00000007       0.00000171      -0.00000039      -0.01526793      -0.14599208      -0.05166386       0.00000016      -0.00000333      -0.00000220      -0.06812771      -0.05111669       0.04280996       0.00000149       0.00000110      -0.00000124      -0.07839776       0.00000358      -0.00000650      -0.09855629       0.11449488       0.15934526      -0.00000230       0.01352189      -0.16686128       0.00001043       0.05423512      -0.03820069       0.00000307      -0.00115186      -0.00966331      -0.00000001      -0.09094559      -0.10727753       0.00000456       0.02782329       0.02415416      -0.00000094       0.00000140       0.00000440       0.06661808       0.03954585      -0.04696205       0.00000071       0.00004190      -0.00004973       0.00082544       0.01353395      -0.02021955       0.00000051       0.05749175       0.03690425       0.00000028      -0.00001106       0.00000358       0.08720454      -0.00000070       0.00000033       0.00603910       0.06206633      -0.00382978       0.00001505       0.00325967      -0.00116040       0.00000110      -0.03474246       0.05627525      -0.00000170      -0.00989519       0.01287362      -0.00000069       0.01524023      -0.01978951       0.00000121      -0.01040151       0.01321791      -0.00000087
H       -0.30612394      -2.13836267       0.00002855       0.00000160      -0.00000146      -0.10083381      -0.00000212      -0.00000281      -0.31356864       0.29843930      -0.13695535      -0.00001907      -0.00000332       0.00002146       0.20189117       0.13161165      -0.25690993       0.00001646       0.26639292       0.12732349      -0.00000494      -0.00000156      -0.00000491      -0.42507244      -0.00000404      -0.00001339      -0.46092315      -0.00002245       0.00000669       0.40859597       0.38165451       0.07589547       0.00002524       0.43622519       0.27931690       0.00000177      -0.00001008      -0.00000438       0.12476939       0.32998317       0.24392942      -0.00000037       0.00001315       0.00001284       0.11444621       0.29543610       0.25465887      -0.00000927       0.00000138       0.00000446       0.15024402      -0.00001978      -0.00001408       0.17756247       0.18647989       0.20179481      -0.00001051      -0.43823424      -0.43602967       0.00000258      -0.07133306      -0.09829992       0.00000167       0.03023229       0.00699931       0.00000197       0.44795246       0.27634825      -0.00002255      -0.11353140      -0.07232474       0.00000564      -0.00001157      -0.00002387      -0.74144767       0.32463142       0.19171584       0.00000742       0.00034882       0.00020606      -0.01951584       0.12125078       0.07063811      -0.00000541      -0.12631981      -0.07943893      -0.00000047       0.00000335      -0.00001053       0.04451319       0.00000101      -0.00000196       0.00328012       0.00989503       0.02265317       0.00000683      -0.00872374       0.01488923       0.00000021       0.50696671      -0.75174654       0.00001735       0.10840449      -0.15660925       0.00000344      -0.16761756       0.24684595      -0.00000529       0.11204245      -0.17035354       0.00000360
H       -1.45328990      -1.16666049      -0.91029967      -0.02303303       0.07152781       0.00719866      -0.17624020       0.20376276       0.14522469       0.16774672      -0.31496176       0.00000388      -0.01064561       0.03879589       0.25697373       0.13161377      -0.25689506       0.00002285       0.26227039       0.12170681      -0.00000323       0.04469295       0.14787579      -0.33509333      -0.42645717       0.20307413       0.33428655      -0.05010974      -0.27979909       0.18619182       0.12571172      -0.28365084      -0.00125232       0.20358506      -0.05481926      -0.00326009      -0.11391921      -0.19771224       0.07280009      -0.09943192      -0.44381123      -0.02122794      -0.18587509      -0.25240040       0.08167167      -0.00992895      -0.21165675      -0.02157166      -0.21678520      -0.25634650       0.09842120      -0.26165188      -0.30269846       0.11691153       0.10882198       0.17522959      -0.00415539      -0.04893354       0.11637381       0.03914240       0.02408742       0.20143801       0.01576263       0.03370464       0.01723672      -0.02063229       0.27006357       0.44143258      -0.21934998      -0.07500125      -0.09233370       0.06274402       0.13435837      -0.44453674      -0.07975441      -0.45897194       0.20084171       0.33819019       0.00142173      -0.01437724      -0.00094910      -0.16866345       0.07736011       0.12385643       0.13781233       0.10042534      -0.08918954      -0.43233465       0.00950821      -0.55276834      -0.03076054       0.00063043      -0.03898911      -0.38855873       0.00429256      -0.58670372      -0.01635797      -0.00041000      -0.02564220      -0.04081060       0.02629916      -0.02925833       0.00242432       0.00559240       0.00975410      -0.00472067      -0.00866414      -0.01711482       0.00515842       0.00579635       0.01473797
H       -1.45328104      -1.16661585       0.91031987       0.02303333      -0.07152980       0.00720195       0.17623580      -0.20375123       0.14523305       0.16775775      -0.31498371       0.00000686       0.01063771      -0.03875260       0.25697559       0.13161624      -0.25690146       0.00002016       0.26226953       0.12170837      -0.00000912      -0.04469391      -0.14787921      -0.33508519       0.42646250      -0.20305744       0.33429239       0.05009640       0.27984955       0.18617676       0.12571635      -0.28361181       0.00129065       0.20359152      -0.05480302       0.00327455       0.11392194       0.19773921       0.07278798      -0.09942002      -0.44378820       0.02125639       0.18587247       0.25238663       0.08165780      -0.00994001      -0.21167137       0.02157788       0.21678893       0.25635938       0.09840513       0.26165500       0.30273459       0.11688920       0.10881152       0.17520910       0.00414245      -0.04896213       0.11634832      -0.03915919       0.02407891       0.20142718      -0.01577508       0.03370743       0.01724197       0.02063293       0.27006106       0.44145546       0.21932032      -0.07500127      -0.09234110      -0.06273761      -0.13435838       0.44451594      -0.07977585      -0.45897434       0.20079749      -0.33819282      -0.00240649       0.01480353      -0.00167504      -0.16866530       0.07735731      -0.12385835       0.13780618       0.10042463       0.08918131       0.43246890      -0.00953741      -0.55298764       0.03076896      -0.00063221      -0.03900329      -0.38839960       0.00431917       0.58651413      -0.01634650      -0.00040897       0.02562826      -0.04081412       0.02630081       0.02926249       0.00242078       0.00559217      -0.00975009      -0.00471291      -0.00866355       0.01710598       0.00515262       0.00579598      -0.01473134
H        3.22963206       0.88098169      -0.00002514       0.00001254       0.00000851       0.52323539      -0.00000131      -0.00000267      -0.29312695      -0.14041746       0.36786117      -0.00001593      -0.00000545       0.00002569       0.29507452       0.13163423      -0.25694127       0.00002271       0.25253904       0.14327359      -0.00000640       0.00000126       0.00000457       0.26872609       0.00000050      -0.00000174       0.08015377       0.00000201       0.00004431       0.31679203       0.05729032      -0.39284134       0.00003586      -0.13440191       0.11337077      -0.00001605      -0.00000813      -0.00001928      -0.13589931       0.19650356       0.43324237      -0.00002227      -0.00000249      -0.00001024       0.05742695      -0.21622722      -0.51975074       0.00002985      -0.00003262      -0.00006827      -0.22401015       0.00002018       0.00004138       0.15075487       0.06847284       0.06091775       0.00000206      -0.13669139      -0.29661843       0.00001328       0.09589148       0.20387949      -0.00001435      -0.02095973      -0.06029168       0.00000007      -0.03451666      -0.13223796      -0.00000083      -0.10735463      -0.48483310      -0.00001161       0.00000021      -0.00000214       0.02014265       0.02580358       0.13996196       0.00085952       0.00003440       0.00025671      -0.73842668      -0.08581795      -0.39884144      -0.00016021      -0.07508123      -0.18413483      -0.00000932      -0.00000292       0.00000033      -0.00355338       0.00003578      -0.00000056       0.04759343       0.00227532       0.00049372      -0.00000092      -0.07167183      -0.00305770       0.00001821       0.01060288      -0.00387384       0.00000010       0.58732173      -0.16094955      -0.00001235       0.66308685      -0.18107917      -0.00001412       0.36928893      -0.09932017      -0.00000834
H        1.99993267       1.82277259       0.88061532      -0.38970035       0.25548151      -0.27186601       0.16878549      -0.20007444       0.14737525      -0.26629060       0.18782582       0.00001765       0.01003065      -0.03842018       0.34776801       0.13164083      -0.25692932       0.00002430       0.24855840       0.13758884      -0.00000610      -0.04637114      -0.14681771       0.34910521      -0.03932354       0.04548490      -0.02283457      -0.18613037      -0.19998300       0.24855723       0.31144170      -0.02932479       0.00065966      -0.33926892      -0.17215769      -0.00278925       0.14557211       0.17632194      -0.08047580      -0.12362475       0.00766069      -0.01350626      -0.06791210      -0.10147841       0.03297983       0.29101812       0.10162906       0.02731278       0.26701291       0.43337716      -0.14913693      -0.18076232      -0.30311621       0.10009753       0.29150040       0.25676395       0.01768002       0.27848046       0.14252928       0.03831266      -0.04590182       0.01001423      -0.03648165      -0.07086406      -0.04583906       0.02636839      -0.06835442      -0.10721110       0.06331540      -0.31662067      -0.41684712       0.23119345       0.01286135       0.00026374       0.00192454       0.13484118      -0.12842087       0.12170728      -0.46673629      -0.02279946      -0.07835063      -0.34318058       0.35780977      -0.32982506      -0.00419509       0.00137315       0.00449090      -0.01096643       0.02813717       0.03912881       0.14811459      -0.40570971      -0.55351962       0.00622564      -0.01742444      -0.02774605      -0.12568961       0.36306227       0.58069742      -0.00536172       0.01510332       0.02354325      -0.03514514       0.04493377       0.06170832      -0.03280182       0.03735052       0.04406343      -0.00323700      -0.02603458      -0.05164446
H        1.99990175       1.82277380      -0.88060600       0.38968091      -0.25548062      -0.27188155      -0.16877265       0.20006499       0.14738236      -0.26630908       0.18784216       0.00000009      -0.01004206       0.03846769       0.34776830       0.13163845      -0.25692296       0.00003087       0.24855897       0.13758713      -0.00000900       0.04636979       0.14681648       0.34910221       0.03932320      -0.04548397      -0.02283639       0.18607150       0.19998772       0.24854762       0.31148368      -0.02928780      -0.00062642      -0.33929479      -0.17218735       0.00277792      -0.14554871      -0.17630905      -0.08046630      -0.12366058       0.00761153       0.01349535       0.06792893       0.10147921       0.03297125       0.29107512       0.10171594      -0.02729764      -0.26693168      -0.43333772      -0.14912870       0.18071953       0.30309916       0.10009264       0.29153333       0.25682087      -0.01767720       0.27851221       0.14258290      -0.03831135      -0.04590944       0.00998680       0.03647474      -0.07086289      -0.04583262      -0.02636404      -0.06835308      -0.10721018      -0.06331219      -0.31661478      -0.41685389      -0.23118277      -0.01286713      -0.00026026       0.00192916       0.13374851      -0.12847331      -0.12152973       0.46720310       0.02235771      -0.07879047      -0.34295751       0.35782489       0.32980630      -0.00416307       0.00139010      -0.00448520       0.01096288      -0.02812162       0.03910378      -0.14804792       0.40543586      -0.55308054       0.00623228      -0.01743821       0.02776503      -0.12582386       0.36335062      -0.58109120      -0.00536490       0.01510911      -0.02355097      -0.03514875       0.04493546      -0.06171018      -0.03280208       0.03734692      -0.04405734      -0.00322888      -0.02604925       0.05166509
12
Properties=species:S:1:pos:R:3:xtb2_normal_mode_displacements_0:R:3:xtb2_normal_mode_displacements_1:R:3:xtb2_normal_mode_displacements_2:R:3:xtb2_normal_mode_displacements_3:R:3:xtb2_normal_mode_displacements_4:R:3:xtb2_normal_mode_displacements_5:R:3:xtb2_normal_mode_displacements_6:R:3:xtb2_normal_mode_displacements_7:R:3:xtb2_normal_mode_displacements_8:R:3:xtb2_normal_mode_displacements_9:R:3:xtb2_normal_mode_displacements_10:R:3:xtb2_normal_mode_displacements_11:R:3:xtb2_normal_mode_displacements_12:R:3:xtb2_normal_mode_displacements_13:R:3:xtb2_normal_mode_displacements_14:R:3:xtb2_normal_mode_displacements_15:R:3:xtb2_normal_mode_displacements_16:R:3:xtb2_normal_mode_displacements_17:R:3:xtb2_normal_mode_displacements_18:R:3:xtb2_normal_mode_displacements_19:R:3:xtb2_normal_mode_displacements_20:R:3:xtb2_normal_mode_displacements_21:R:3:xtb2_normal_mode_displacements_22:R:3:xtb2_normal_mode_displacements_23:R:3:xtb2_normal_mode_displacements_24:R:3:xtb2_normal_mode_displacements_25:R:3:xtb2_normal_mode_displacements_26:R:3:xtb2_normal_mode_displacements_27:R:3:xtb2_normal_mode_displacements_28:R:3:xtb2_normal_mode_displacements_29:R:3:xtb2_normal_mode_displacements_30:R:3:xtb2_normal_mode_displacements_31:R:3:xtb2_normal_mode_displacements_32:R:3:xtb2_normal_mode_displacements_33:R:3:xtb2_normal_mode_displacements_34:R:3:xtb2_normal_mode_displacements_35:R:3 butene=T reference=T _ConfigSet_loc=" / 0 / 0" xtb2_normal_mode_frequencies="-0.020805350599677645 -0.0012520287572930428 -0.0008057157555249398 -4.5646307594914854e-05 -1.544271636343004e-06 2.0070667760733657e-05 0.0007792852814774499 0.020007895212821186 0.030827178750387946 0.03379472539721994 0.06147046924481604 0.08694186489268312 0.11505838067939451 0.12427408663486034 0.12511644226890012 0.12691071213329774 0.13044988333222152 0.1391633835201524 0.14195157959406351 0.15814728268344924 0.161403301474211 0.17400433576408564 0.17465713361699353 0.18358617565523236 0.18451272219423798 0.18453214420220326 0.18474813708238022 0.21569178023426594 0.3710653957286146 0.37201378110443734 0.3729909202179395 0.3734662167474916 0.37645626122957077 0.3776743594254655 0.3781192902563234 0.379676400084026" pbc="F F F"
C       -0.59869601      -0.07294754      -0.00004633      -0.00000219       0.00000336       0.06748807      -0.00000559       0.00000916       0.12212985      -0.00614295      -0.09692342       0.00000606      -0.00000501       0.00002407       0.29206110       0.13163050      -0.25691768       0.00002379       0.25677989       0.12859307      -0.00000667       0.00000163       0.00000451      -0.05405953       0.00000299      -0.00000375      -0.09743338       0.00001026      -0.00001152      -0.17628007      -0.15989949       0.12211245      -0.00001533       0.01200567       0.17692842      -0.00000709       0.00000474      -0.00000819      -0.14139153      -0.03346491       0.08690673      -0.00000724       0.00000078      -0.00000096      -0.00122224       0.02641785      -0.04570419       0.00000106      -0.00000306       0.00000180       0.09531005      -0.00000429       0.00000765       0.10139995      -0.13752430      -0.17267510       0.00000252       0.02319795       0.20679016      -0.00001116      -0.08855670      -0.02362058      -0.00000150       0.03987610      -0.08167344       0.00000626       0.00648479       0.02268491      -0.00000070      -0.01422627       0.00480927      -0.00000080      -0.00000038      -0.00000073       0.01148138      -0.00519387      -0.00462566       0.00000003      -0.00000407      -0.00000610      -0.00033160       0.00415898       0.00502256      -0.00000046      -0.55546241      -0.07424367      -0.00001728      -0.00000071      -0.00000031       0.00179280      -0.00000007      -0.00000116      -0.00012193       0.00139831       0.00495002       0.00000006      -0.00092282       0.00483815      -0.00000038       0.01637363      -0.02591311       0.00000203      -0.02077876       0.02980516      -0.00000235       0.02835169      -0.04467337       0.00000347      -0.01735652       0.03406534      -0.00000244
C        1.94217620       0.06370452       0.00004722       0.00000248      -0.00000404      -0.04758114       0.00000487      -0.00000777      -0.14330379      -0.00260990       0.09284680      -0.00000763      -0.00000435       0.00002238       0.27498941       0.13163092      -0.25692797       0.00002184       0.25689140       0.13459017      -0.00000618      -0.00000103      -0.00000460       0.00726094      -0.00000254       0.00000268       0.04453399       0.00001204      -0.00001492      -0.22198727      -0.15883473       0.12881301      -0.00001835      -0.01985896      -0.16863397       0.00000972      -0.00000683       0.00000684       0.14939235       0.04389036      -0.09101025       0.00000701       0.00000317      -0.00000415      -0.03581761       0.01362209      -0.00488053       0.00000802       0.00000432      -0.00000772      -0.09567610      -0.00000354       0.00000275       0.08222047      -0.13336065      -0.28197104       0.00001021       0.02611065      -0.13426829       0.00000769      -0.10191264      -0.01324020      -0.00000399      -0.02938487       0.08349719      -0.00000518       0.01089938      -0.00969461       0.00000117      -0.00933056      -0.01438009       0.00000074      -0.00000062       0.00000017       0.00060586       0.02338722       0.01169582      -0.00001147       0.00002412       0.00001731       0.01055505       0.00971860      -0.01258606       0.00000254       0.54379582       0.07123561       0.00001871       0.00000018       0.00000008       0.00022403       0.00000188      -0.00000098       0.00148631      -0.00126622       0.00038203      -0.00000002      -0.00611694       0.00606801      -0.00000014      -0.00118201      -0.00189184       0.00000006       0.02560914      -0.04094076       0.00000331      -0.00864247       0.00685988      -0.00000064      -0.03178962       0.05562476      -0.00000426
H       -0.46621127       1.06902910      -0.00010137      -0.00000799       0.00001294       0.24073037      -0.00001597       0.00002701       0.44309473      -0.14260435      -0.17165367       0.00002342      -0.00000633       0.00002689       0.34029384       0.13164507      -0.25690780       0.00002798       0.25246350       0.12622903      -0.00000768       0.00000521       0.00001637       0.08091855       0.00000958      -0.00001007      -0.23001709       0.00001094      -0.00000788      -0.13405564      -0.29191125       0.04257858      -0.00001480       0.15496007       0.24046056      -0.00000564      -0.00002502       0.00002685       0.55583124       0.20434738       0.21511290      -0.00001770      -0.00000401       0.00004071       0.59991421       0.32683170       0.12343428      -0.00002387       0.00001952      -0.00001364      -0.28563826       0.00000848      -0.00002303      -0.40478354      -0.19671369      -0.20921844       0.00000259       0.16774450       0.26476721      -0.00000327       0.60384886       0.35623080       0.00000292       0.57782630       0.22519915       0.00001200      -0.09406086      -0.03294611      -0.00000456      -0.00650655       0.00895070      -0.00000115       0.00000264      -0.00000174      -0.02891030      -0.01490400      -0.00968248      -0.00000381      -0.00001750      -0.00001322       0.00144163      -0.01658667      -0.00653431       0.00000042       0.11550566       0.34134069      -0.00001428      -0.00000065       0.00000129      -0.00120519      -0.00000607       0.00001240       0.00191578       0.02681777      -0.04941507       0.00000311       0.02596940      -0.05214566       0.00000450      -0.19482453       0.35551819      -0.00002604       0.22291874      -0.39554666       0.00002940      -0.31027083       0.55823993      -0.00004127       0.21747286      -0.39443643       0.00002913
H        1.82441680      -1.06958404       0.00010329       0.00000784      -0.00001563      -0.24023474       0.00001594      -0.00002628      -0.46365068       0.13404370       0.16680055      -0.00002494      -0.00000297       0.00001944       0.22671233       0.13163114      -0.25692585       0.00001765       0.26120454       0.13692367      -0.00000517      -0.00000457      -0.00001689      -0.12839147      -0.00000964       0.00001033       0.19526079       0.00001711      -0.00001739      -0.29244002      -0.28499698       0.05396827      -0.00002182      -0.14217064      -0.22123064       0.00000915       0.00002006      -0.00003705      -0.61807004       0.00398675      -0.11100080      -0.00001066      -0.00000379       0.00004175       0.61239598       0.29541506       0.14904564      -0.00004484       0.00000089      -0.00000079       0.02215083       0.00001379      -0.00002130      -0.36238215      -0.26130287      -0.34744879       0.00001759      -0.16359992      -0.21875292       0.00000853       0.48278358       0.30632025       0.00000288      -0.69820572      -0.29455875      -0.00001027       0.02592478      -0.00170746      -0.00000047       0.14231053       0.07013525      -0.00000169       0.00000177       0.00000092      -0.00802904      -0.04305025      -0.02800456      -0.00000805      -0.00005238      -0.00002959       0.00527918      -0.00992177      -0.02082881       0.00000470      -0.09364233      -0.31960744       0.00001265       0.00000102      -0.00000173       0.00073319      -0.00001375       0.00002477       0.00369220      -0.00147123       0.00050098      -0.00000003       0.05798142      -0.10653127       0.00000944       0.00263952       0.00228123       0.00000018      -0.29272474       0.53003730      -0.00004083       0.06111051      -0.10580323       0.00000794       0.37384828      -0.67477344       0.00005153
C        2.14336722       1.17671262      -0.00000050       0.00000000       0.00000064      -0.00163317       0.00000376      -0.00000455      -0.03036321      -0.17854881       0.21668266      -0.00000111      -0.00000537       0.00002404       0.31873323       0.13163731      -0.25693466       0.00002510       0.25133789       0.13850348      -0.00000696      -0.00000009       0.00000014       0.25757433      -0.00000038       0.00000026       0.01732631      -0.00001027       0.00000881       0.15158778       0.13399870      -0.08703780       0.00001304      -0.19513550      -0.13125230      -0.00000206       0.00000013       0.00000124       0.01471269       0.11134166       0.06340881       0.00000288      -0.00000205       0.00000127      -0.03023449      -0.09497275       0.02562032      -0.00000832      -0.00000859       0.00000933       0.11557687       0.00000568      -0.00000408      -0.08465415       0.10623428       0.24745484      -0.00001057      -0.05345672       0.10850493      -0.00000744       0.04664189      -0.02488755       0.00000462       0.00622164       0.02293161      -0.00000181       0.01072908       0.02900301      -0.00000043       0.06860267       0.11099975       0.00000030       0.00000067      -0.00000013      -0.00200733      -0.02778977       0.00307268      -0.00007572      -0.00004478       0.00000457       0.06540240       0.05772947      -0.01541711       0.00001262      -0.05318765      -0.03068693      -0.00000054       0.00000055      -0.00000131      -0.00638645      -0.00000883       0.00002204       0.08727075      -0.00118803       0.00286338      -0.00000153       0.02733381      -0.05831576       0.00003092      -0.00000593      -0.00203408       0.00000061      -0.04197136       0.00514487       0.00000124      -0.04932291       0.00929947       0.00000061      -0.03079494       0.01285262      -0.00000109
C       -0.79322488      -1.15952898       0.00000753       0.00000014      -0.00000024      -0.00923303      -0.00000311       0.00000435       0.01633727       0.16758870      -0.22243930      -0.00000102      -0.00000401       0.00002213       0.24922850       0.13161823      -0.25690841       0.00002061       0.26227070       0.12463071      -0.00000594      -0.00000027      -0.00000116      -0.30214224      -0.00000018       0.00000057       0.01828406      -0.00000660       0.00001084       0.14867095       0.12293809      -0.09287306       0.00001257       0.19936508       0.12648929       0.00000007       0.00000171      -0.00000039      -0.01526793      -0.14599208      -0.05166386       0.00000016      -0.00000333      -0.00000220      -0.06812771      -0.05111669       0.04280996       0.00000149       0.00000110      -0.00000124      -0.07839776       0.00000358      -0.00000650      -0.09855629       0.11449488       0.15934526      -0.00000230       0.01352189      -0.16686128       0.00001043       0.05423512      -0.03820069       0.00000307      -0.00115186      -0.00966331      -0.00000001      -0.09094559      -0.10727753       0.00000456       0.02782329       0.02415416      -0.00000094       0.00000140       0.00000440       0.06661808       0.03954585      -0.04696205       0.00000071       0.00004190      -0.00004973       0.00082544       0.01353395      -0.02021955       0.00000051       0.05749175       0.03690425       0.00000028      -0.00001106       0.00000358       0.08720454      -0.00000070       0.00000033       0.00603910       0.06206633      -0.00382978       0.00001505       0.00325967      -0.00116040       0.00000110      -0.03474246       0.05627525      -0.00000170      -0.00989519       0.01287362      -0.00000069       0.01524023      -0.01978951       0.00000121      -0.01040151       0.01321791      -0.00000087
H       -0.30278174      -2.13626086       0.00002856       0.00000160      -0.00000146      -0.10083381      -0.00000212      -0.00000281      -0.31356864       0.29843930      -0.13695535      -0.00001907      -0.00000332       0.00002146       0.20189117       0.13161165      -0.25690993       0.00001646       0.26639292       0.12732349      -0.00000494      -0.00000156      -0.00000491      -0.42507244      -0.00000404      -0.00001339      -0.46092315      -0.00002245       0.00000669       0.40859597       0.38165451       0.07589547       0.00002524       0.43622519       0.27931690       0.00000177      -0.00001008      -0.00000438       0.12476939       0.32998317       0.24392942      -0.00000037       0.00001315       0.00001284       0.11444621       0.29543610       0.25465887      -0.00000927       0.00000138       0.00000446       0.15024402      -0.00001978      -0.00001408       0.17756247       0.18647989       0.20179481      -0.00001051      -0.43823424      -0.43602967       0.00000258      -0.07133306      -0.09829992       0.00000167       0.03023229       0.00699931       0.00000197       0.44795246       0.27634825      -0.00002255      -0.11353140      -0.07232474       0.00000564      -0.00001157      -0.00002387      -0.74144767       0.32463142       0.19171584       0.00000742       0.00034882       0.00020606      -0.01951584       0.12125078       0.07063811      -0.00000541      -0.12631981      -0.07943893      -0.00000047       0.00000335      -0.00001053       0.04451319       0.00000101      -0.00000196       0.00328012       0.00989503       0.02265317       0.00000683      -0.00872374       0.01488923       0.00000021       0.50696671      -0.75174654       0.00001735       0.10840449      -0.15660925       0.00000344      -0.16761756       0.24684595      -0.00000529       0.11204245      -0.17035354       0.00000360
H       -1.45693618      -1.16931758      -0.90793986      -0.02303303       0.07152781       0.00719866      -0.17624020       0.20376276       0.14522469       0.16774672      -0.31496176       0.00000388      -0.01064561       0.03879589       0.25697373       0.13161377      -0.25689506       0.00002285       0.26227039       0.12170681      -0.00000323       0.04469295       0.14787579      -0.33509333      -0.42645717       0.20307413       0.33428655      -0.05010974      -0.27979909       0.18619182       0.12571172      -0.28365084      -0.00125232       0.20358506      -0.05481926      -0.00326009      -0.11391921      -0.19771224       0.07280009      -0.09943192      -0.44381123      -0.02122794      -0.18587509      -0.25240040       0.08167167      -0.00992895      -0.21165675      -0.02157166      -0.21678520      -0.25634650       0.09842120      -0.26165188      -0.30269846       0.11691153       0.10882198       0.17522959      -0.00415539      -0.04893354       0.11637381       0.03914240       0.02408742       0.20143801       0.01576263       0.03370464       0.01723672      -0.02063229       0.27006357       0.44143258      -0.21934998      -0.07500125      -0.09233370       0.06274402       0.13435837      -0.44453674      -0.07975441      -0.45897194       0.20084171       0.33819019       0.00142173      -0.01437724      -0.00094910      -0.16866345       0.07736011       0.12385643       0.13781233       0.10042534      -0.08918954      -0.43233465       0.00950821      -0.55276834      -0.03076054       0.00063043      -0.03898911      -0.38855873       0.00429256      -0.58670372      -0.01635797      -0.00041000      -0.02564220      -0.04081060       0.02629916      -0.02925833       0.00242432       0.00559240       0.00975410      -0.00472067      -0.00866414      -0.01711482       0.00515842       0.00579635       0.01473797
H       -1.45692716      -1.16927291       0.90796028       0.02303333      -0.07152980       0.00720195       0.17623580      -0.20375123       0.14523305       0.16775775      -0.31498371       0.00000686       0.01063771      -0.03875260       0.25697559       0.13161624      -0.25690146       0.00002016       0.26226953       0.12170837      -0.00000912      -0.04469391      -0.14787921      -0.33508519       0.42646250      -0.20305744       0.33429239       0.05009640       0.27984955       0.18617676       0.12571635      -0.28361181       0.00129065       0.20359152      -0.05480302       0.00327455       0.11392194       0.19773921       0.07278798      -0.09942002      -0.44378820       0.02125639       0.18587247       0.25238663       0.08165780      -0.00994001      -0.21167137       0.02157788       0.21678893       0.25635938       0.09840513       0.26165500       0.30273459       0.11688920       0.10881152       0.17520910       0.00414245      -0.04896213       0.11634832      -0.03915919       0.02407891       0.20142718      -0.01577508       0.03370743       0.01724197       0.02063293       0.27006106       0.44145546       0.21932032      -0.07500127      -0.09234110      -0.06273761      -0.13435838       0.44451594      -0.07977585      -0.45897434       0.20079749      -0.33819282      -0.00240649       0.01480353      -0.00167504      -0.16866530       0.07735731      -0.12385835       0.13780618       0.10042463       0.08918131       0.43246890      -0.00953741      -0.55298764       0.03076896      -0.00063221      -0.03900329      -0.38839960       0.00431917       0.58651413      -0.01634650      -0.00040897       0.02562826      -0.04081412       0.02630081       0.02926249       0.00242078       0.00559217      -0.00975009      -0.00471291      -0.00866355       0.01710598       0.00515262       0.00579598      -0.01473134
H        3.23161859       0.88585358      -0.00002489       0.00001254       0.00000851       0.52323539      -0.00000131      -0.00000267      -0.29312695      -0.14041746       0.36786117      -0.00001593      -0.00000545       0.00002569       0.29507452       0.13163423      -0.25694127       0.00002271       0.25253904       0.14327359      -0.00000640       0.00000126       0.00000457       0.26872609       0.00000050      -0.00000174       0.08015377       0.00000201       0.00004431       0.31679203       0.05729032      -0.39284134       0.00003586      -0.13440191       0.11337077      -0.00001605      -0.00000813      -0.00001928      -0.13589931       0.19650356       0.43324237      -0.00002227      -0.00000249      -0.00001024       0.05742695      -0.21622722      -0.51975074       0.00002985      -0.00003262      -0.00006827      -0.22401015       0.00002018       0.00004138       0.15075487       0.06847284       0.06091775       0.00000206      -0.13669139      -0.29661843       0.00001328       0.09589148       0.20387949      -0.00001435      -0.02095973      -0.06029168       0.00000007      -0.03451666      -0.13223796      -0.00000083      -0.10735463      -0.48483310      -0.00001161       0.00000021      -0.00000214       0.02014265       0.02580358       0.13996196       0.00085952       0.00003440       0.00025671      -0.73842668      -0.08581795      -0.39884144      -0.00016021      -0.07508123      -0.18413483      -0.00000932      -0.00000292       0.00000033      -0.00355338       0.00003578      -0.00000056       0.04759343       0.00227532       0.00049372      -0.00000092      -0.07167183      -0.00305770       0.00001821       0.01060288      -0.00387384       0.00000010       0.58732173      -0.16094955      -0.00001235       0.66308685      -0.18107917      -0.00001412       0.36928893      -0.09932017      -0.00000834
H        2.00004367       1.82273625       0.88049650      -0.38970035       0.25548151      -0.27186601       0.16878549      -0.20007444       0.14737525      -0.26629060       0.18782582       0.00001765       0.01003065      -0.03842018       0.34776801       0.13164083      -0.25692932       0.00002430       0.24855840       0.13758884      -0.00000610      -0.04637114      -0.14681771       0.34910521      -0.03932354       0.04548490      -0.02283457      -0.18613037      -0.19998300       0.24855723       0.31144170      -0.02932479       0.00065966      -0.33926892      -0.17215769      -0.00278925       0.14557211       0.17632194      -0.08047580      -0.12362475       0.00766069      -0.01350626      -0.06791210      -0.10147841       0.03297983       0.29101812       0.10162906       0.02731278       0.26701291       0.43337716      -0.14913693      -0.18076232      -0.30311621       0.10009753       0.29150040       0.25676395       0.01768002       0.27848046       0.14252928       0.03831266      -0.04590182       0.01001423      -0.03648165      -0.07086406      -0.04583906       0.02636839      -0.06835442      -0.10721110       0.06331540      -0.31662067      -0.41684712       0.23119345       0.01286135       0.00026374       0.00192454       0.13484118      -0.12842087       0.12170728      -0.46673629      -0.02279946      -0.07835063      -0.34318058       0.35780977      -0.32982506      -0.00419509       0.00137315       0.00449090      -0.01096643       0.02813717       0.03912881       0.14811459      -0.40570971      -0.55351962       0.00622564      -0.01742444      -0.02774605      -0.12568961       0.36306227       0.58069742      -0.00536172       0.01510332       0.02354325      -0.03514514       0.04493377       0.06170832      -0.03280182       0.03735052       0.04406343      -0.00323700      -0.02603458      -0.05164446
H        2.00001190       1.82273702      -0.88048733       0.38968091      -0.25548062      -0.27188155      -0.16877265       0.20006499       0.14738236      -0.26630908       0.18784216       0.00000009      -0.01004206       0.03846769       0.34776830       0.13163845      -0.25692296       0.00003087       0.24855897       0.13758713      -0.00000900       0.04636979       0.14681648       0.34910221       0.03932320      -0.04548397      -0.02283639       0.18607150       0.19998772       0.24854762       0.31148368      -0.02928780      -0.00062642      -0.33929479      -0.17218735       0.00277792      -0.14554871      -0.17630905      -0.08046630      -0.12366058       0.00761153       0.01349535       0.06792893       0.10147921       0.03297125       0.29107512       0.10171594      -0.02729764      -0.26693168      -0.43333772      -0.14912870       0.18071953       0.30309916       0.10009264       0.29153333       0.25682087      -0.01767720       0.27851221       0.14258290      -0.03831135      -0.04590944       0.00998680       0.03647474      -0.07086289      -0.04583262      -0.02636404      -0.06835308      -0.10721018      -0.06331219      -0.31661478      -0.41685389      -0.23118277      -0.01286713      -0.00026026       0.00192916       0.13374851      -0.12847331      -0.12152973       0.46720310       0.02235771      -0.07879047      -0.34295751       0.35782489       0.32980630      -0.00416307       0.00139010      -0.00448520       0.01096288      -0.02812162       0.03910378      -0.14804792       0.40543586      -0.55308054       0.00623228      -0.01743821       0.02776503      -0.12582386       0.36335062      -0.58109120      -0.00536490       0.01510911      -0.02355097      -0.03514875       0.04493546      -0.06171018      -0.03280208       0.03734692      -0.04405734      -0.00322888      -0.02604925       0.05166509
12
Properties=species:S:1:pos:R:3:xtb2_normal_mode_displacements_0:R:3:xtb2_normal_mode_displacements_1:R:3:xtb2_normal_mode_displacements_2:R:3:xtb2_normal_mode_displacements_3:R:3:xtb2_normal_mode_displacements_4:R:3:xtb2_normal_mode_displacements_5:R:3:xtb2_normal_mode_displacements_6:R:3:xtb2_normal_mode_displacements_7:R:3:xtb2_normal_mode_displacements_8:R:3:xtb2_normal_mode_displacements_9:R:3:xtb2_normal_mode_displacements_10:R:3:xtb2_normal_mode_displacements_11:R:3:xtb2_normal_mode_displacements_12:R:3:xtb2_normal_mode_displacements_13:R:3:xtb2_normal_mode_displacements_14:R:3:xtb2_normal_mode_displacements_15:R:3:xtb2_normal_mode_displacements_16:R:3:xtb2_normal_mode_displacements_17:R:3:xtb2_normal_mode_displacements_18:R:3:xtb2_normal_mode_displacements_19:R:3:xtb2_normal_mode_displacements_20:R:3:xtb2_normal_mode_displacements_21:R:3:xtb2_normal_mode_displacements_22:R:3:xtb2_normal_mode_displacements_23:R:3:xtb2_normal_mode_displacements_24:R:3:xtb2_normal_mode_displacements_25:R:3:xtb2_normal_mode_displacements_26:R:3:xtb2_normal_mode_displacements_27:R:3:xtb2_normal_mode_displacements_28:R:3:xtb2_normal_mode_displacements_29:R:3:xtb2_normal_mode_displacements_30:R:3:xtb2_normal_mode_displacements_31:R:3:xtb2_normal_mode_displacements_32:R:3:xtb2_normal_mode_displacements_33:R:3:xtb2_normal_mode_displacements_34:R:3:xtb2_normal_mode_displacements_35:R:3 butene=T reference=T _ConfigSet_loc=" / 0 / 0" xtb2_normal_mode_frequencies="-0.020805350599677645 -0.0012520287572930428 -0.0008057157555249398 -4.5646307594914854e-05 -1.544271636343004e-06 2.0070667760733657e-05 0.0007792852814774499 0.020007895212821186 0.030827178750387946 0.03379472539721994 0.06147046924481604 0.08694186489268312 0.11505838067939451 0.12427408663486034 0.12511644226890012 0.12691071213329774 0.13044988333222152 0.1391633835201524 0.14195157959406351 0.15814728268344924 0.161403301474211 0.17400433576408564 0.17465713361699353 0.18358617565523236 0.18451272219423798 0.18453214420220326 0.18474813708238022 0.21569178023426594 0.3710653957286146 0.37201378110443734 0.3729909202179395 0.3734662167474916 0.37645626122957077 0.3776743594254655 0.3781192902563234 0.379676400084026" pbc="F F F"
C       -0.45422552      -0.05363747      -0.00004184      -0.00000219       0.00000336       0.06748807      -0.00000559       0.00000916       0.12212985      -0.00614295      -0.09692342       0.00000606      -0.00000501       0.00002407       0.29206110       0.13163050      -0.25691768       0.00002379       0.25677989       0.12859307      -0.00000667       0.00000163       0.00000451      -0.05405953       0.00000299      -0.00000375      -0.09743338       0.00001026      -0.00001152      -0.17628007      -0.15989949       0.12211245      -0.00001533       0.01200567       0.17692842      -0.00000709       0.00000474      -0.00000819      -0.14139153      -0.03346491       0.08690673      -0.00000724       0.00000078      -0.00000096      -0.00122224       0.02641785      -0.04570419       0.00000106      -0.00000306       0.00000180       0.09531005      -0.00000429       0.00000765       0.10139995      -0.13752430      -0.17267510       0.00000252       0.02319795       0.20679016      -0.00001116      -0.08855670      -0.02362058      -0.00000150       0.03987610      -0.08167344       0.00000626       0.00648479       0.02268491      -0.00000070      -0.01422627       0.00480927      -0.00000080      -0.00000038      -0.00000073       0.01148138      -0.00519387      -0.00462566       0.00000003      -0.00000407      -0.00000610      -0.00033160       0.00415898       0.00502256      -0.00000046      -0.55546241      -0.07424367      -0.00001728      -0.00000071      -0.00000031       0.00179280      -0.00000007      -0.00000116      -0.00012193       0.00139831       0.00495002       0.00000006      -0.00092282       0.00483815      -0.00000038       0.01637363      -0.02591311       0.00000203      -0.02077876       0.02980516      -0.00000235       0.02835169      -0.04467337       0.00000347      -0.01735652       0.03406534      -0.00000244
C        1.80074008       0.04517682       0.00004235       0.00000248      -0.00000404      -0.04758114       0.00000487      -0.00000777      -0.14330379      -0.00260990       0.09284680      -0.00000763      -0.00000435       0.00002238       0.27498941       0.13163092      -0.25692797       0.00002184       0.25689140       0.13459017      -0.00000618      -0.00000103      -0.00000460       0.00726094      -0.00000254       0.00000268       0.04453399       0.00001204      -0.00001492      -0.22198727      -0.15883473       0.12881301      -0.00001835      -0.01985896      -0.16863397       0.00000972      -0.00000683       0.00000684       0.14939235       0.04389036      -0.09101025       0.00000701       0.00000317      -0.00000415      -0.03581761       0.01362209      -0.00488053       0.00000802       0.00000432      -0.00000772      -0.09567610      -0.00000354       0.00000275       0.08222047      -0.13336065      -0.28197104       0.00001021       0.02611065      -0.13426829       0.00000769      -0.10191264      -0.01324020      -0.00000399      -0.02938487       0.08349719      -0.00000518       0.01089938      -0.00969461       0.00000117      -0.00933056      -0.01438009       0.00000074      -0.00000062       0.00000017       0.00060586       0.02338722       0.01169582      -0.00001147       0.00002412       0.00001731       0.01055505       0.00971860      -0.01258606       0.00000254       0.54379582       0.07123561       0.00001871       0.00000018       0.00000008       0.00022403       0.00000188      -0.00000098       0.00148631      -0.00126622       0.00038203      -0.00000002      -0.00611694       0.00606801      -0.00000014      -0.00118201      -0.00189184       0.00000006       0.02560914      -0.04094076       0.00000331      -0.00864247       0.00685988      -0.00000064      -0.03178962       0.05562476      -0.00000426
H       -0.47491426       1.04331015      -0.00010029      -0.00000799       0.00001294       0.24073037      -0.00001597       0.00002701       0.44309473      -0.14260435      -0.17165367       0.00002342      -0.00000633       0.00002689       0.34029384       0.13164507      -0.25690780       0.00002798       0.25246350       0.12622903      -0.00000768       0.00000521       0.00001637       0.08091855       0.00000958      -0.00001007      -0.23001709       0.00001094      -0.00000788      -0.13405564      -0.29191125       0.04257858      -0.00001480       0.15496007       0.24046056      -0.00000564      -0.00002502       0.00002685       0.55583124       0.20434738       0.21511290      -0.00001770      -0.00000401       0.00004071       0.59991421       0.32683170       0.12343428      -0.00002387       0.00001952      -0.00001364      -0.28563826       0.00000848      -0.00002303      -0.40478354      -0.19671369      -0.20921844       0.00000259       0.16774450       0.26476721      -0.00000327       0.60384886       0.35623080       0.00000292       0.57782630       0.22519915       0.00001200      -0.09406086      -0.03294611      -0.00000456      -0.00650655       0.00895070      -0.00000115       0.00000264      -0.00000174      -0.02891030      -0.01490400      -0.00968248      -0.00000381      -0.00001750      -0.00001322       0.00144163      -0.01658667      -0.00653431       0.00000042       0.11550566       0.34134069      -0.00001428      -0.00000065       0.00000129      -0.00120519      -0.00000607       0.00001240       0.00191578       0.02681777      -0.04941507       0.00000311       0.02596940      -0.05214566       0.00000450      -0.19482453       0.35551819      -0.00002604       0.22291874      -0.39554666       0.00002940      -0.31027083       0.55823993      -0.00004127       0.21747286      -0.39443643       0.00002913
H        1.83147245      -1.04550262       0.00010234       0.00000784      -0.00001563      -0.24023474       0.00001594      -0.00002628      -0.46365068       0.13404370       0.16680055      -0.00002494      -0.00000297       0.00001944       0.22671233       0.13163114      -0.25692585       0.00001765       0.26120454       0.13692367      -0.00000517      -0.00000457      -0.00001689      -0.12839147      -0.00000964       0.00001033       0.19526079       0.00001711      -0.00001739      -0.29244002      -0.28499698       0.05396827      -0.00002182      -0.14217064      -0.22123064       0.00000915       0.00002006      -0.00003705      -0.61807004       0.00398675      -0.11100080      -0.00001066      -0.00000379       0.00004175       0.61239598       0.29541506       0.14904564      -0.00004484       0.00000089      -0.00000079       0.02215083       0.00001379      -0.00002130      -0.36238215      -0.26130287      -0.34744879       0.00001759      -0.16359992      -0.21875292       0.00000853       0.48278358       0.30632025       0.00000288      -0.69820572      -0.29455875      -0.00001027       0.02592478      -0.00170746      -0.00000047       0.14231053       0.07013525      -0.00000169       0.00000177       0.00000092      -0.00802904      -0.04305025      -0.02800456      -0.00000805      -0.00005238      -0.00002959       0.00527918      -0.00992177      -0.02082881       0.00000470      -0.09364233      -0.31960744       0.00001265       0.00000102      -0.00000173       0.00073319      -0.00001375       0.00002477       0.00369220      -0.00147123       0.00050098      -0.00000003       0.05798142      -0.10653127       0.00000944       0.00263952       0.00228123       0.00000018      -0.29272474       0.53003730      -0.00004083       0.06111051      -0.10580323       0.00000794       0.37384828      -0.67477344       0.00005153
C        2.15720082       1.18469400      -0.00000036       0.00000000       0.00000064      -0.00163317       0.00000376      -0.00000455      -0.03036321      -0.17854881       0.21668266      -0.00000111      -0.00000537       0.00002404       0.31873323       0.13163731      -0.25693466       0.00002510       0.25133789       0.13850348      -0.00000696      -0.00000009       0.00000014       0.25757433      -0.00000038       0.00000026       0.01732631      -0.00001027       0.00000881       0.15158778       0.13399870      -0.08703780       0.00001304      -0.19513550      -0.13125230      -0.00000206       0.00000013       0.00000124       0.01471269       0.11134166       0.06340881       0.00000288      -0.00000205       0.00000127      -0.03023449      -0.09497275       0.02562032      -0.00000832      -0.00000859       0.00000933       0.11557687       0.00000568      -0.00000408      -0.08465415       0.10623428       0.24745484      -0.00001057      -0.05345672       0.10850493      -0.00000744       0.04664189      -0.02488755       0.00000462       0.00622164       0.02293161      -0.00000181       0.01072908       0.02900301      -0.00000043       0.06860267       0.11099975       0.00000030       0.00000067      -0.00000013      -0.00200733      -0.02778977       0.00307268      -0.00007572      -0.00004478       0.00000457       0.06540240       0.05772947      -0.01541711       0.00001262      -0.05318765      -0.03068693      -0.00000054       0.00000055      -0.00000131      -0.00638645      -0.00000883       0.00002204       0.08727075      -0.00118803       0.00286338      -0.00000153       0.02733381      -0.05831576       0.00003092      -0.00000593      -0.00203408       0.00000061      -0.04197136       0.00514487       0.00000124      -0.04932291       0.00929947       0.00000061      -0.03079494       0.01285262      -0.00000109
C       -0.80817794      -1.16912743       0.00000746       0.00000014      -0.00000024      -0.00923303      -0.00000311       0.00000435       0.01633727       0.16758870      -0.22243930      -0.00000102      -0.00000401       0.00002213       0.24922850       0.13161823      -0.25690841       0.00002061       0.26227070       0.12463071      -0.00000594      -0.00000027      -0.00000116      -0.30214224      -0.00000018       0.00000057       0.01828406      -0.00000660       0.00001084       0.14867095       0.12293809      -0.09287306       0.00001257       0.19936508       0.12648929       0.00000007       0.00000171      -0.00000039      -0.01526793      -0.14599208      -0.05166386       0.00000016      -0.00000333      -0.00000220      -0.06812771      -0.05111669       0.04280996       0.00000149       0.00000110      -0.00000124      -0.07839776       0.00000358      -0.00000650      -0.09855629       0.11449488       0.15934526      -0.00000230       0.01352189      -0.16686128       0.00001043       0.05423512      -0.03820069       0.00000307      -0.00115186      -0.00966331      -0.00000001      -0.09094559      -0.10727753       0.00000456       0.02782329       0.02415416      -0.00000094       0.00000140       0.00000440       0.06661808       0.03954585      -0.04696205       0.00000071       0.00004190      -0.00004973       0.00082544       0.01353395      -0.02021955       0.00000051       0.05749175       0.03690425       0.00000028      -0.00001106       0.00000358       0.08720454      -0.00000070       0.00000033       0.00603910       0.06206633      -0.00382978       0.00001505       0.00325967      -0.00116040       0.00000110      -0.03474246       0.05627525      -0.00000170      -0.00989519       0.01287362      -0.00000069       0.01524023      -0.01978951       0.00000121      -0.01040151       0.01321791      -0.00000087
H       -0.29326394      -2.13027538       0.00002859       0.00000160      -0.00000146      -0.10083381      -0.00000212      -0.00000281      -0.31356864       0.29843930      -0.13695535      -0.00001907      -0.00000332       0.00002146       0.20189117       0.13161165      -0.25690993       0.00001646       0.26639292       0.12732349      -0.00000494      -0.00000156      -0.00000491      -0.42507244      -0.00000404      -0.00001339      -0.46092315      -0.00002245       0.00000669       0.40859597       0.38165451       0.07589547       0.00002524       0.43622519       0.27931690       0.00000177      -0.00001008      -0.00000438       0.12476939       0.32998317       0.24392942      -0.00000037       0.00001315       0.00001284       0.11444621       0.29543610       0.25465887      -0.00000927       0.00000138       0.00000446       0.15024402      -0.00001978      -0.00001408       0.17756247       0.18647989       0.20179481      -0.00001051      -0.43823424      -0.43602967       0.00000258      -0.07133306      -0.09829992       0.00000167       0.03023229       0.00699931       0.00000197       0.44795246       0.27634825      -0.00002255      -0.11353140      -0.07232474       0.00000564      -0.00001157      -0.00002387      -0.74144767       0.32463142       0.19171584       0.00000742       0.00034882       0.00020606      -0.01951584       0.12125078       0.07063811      -0.00000541      -0.12631981      -0.07943893      -0.00000047       0.00000335      -0.00001053       0.04451319       0.00000101      -0.00000196       0.00328012       0.00989503       0.02265317       0.00000683      -0.00872374       0.01488923       0.00000021       0.50696671      -0.75174654       0.00001735       0.10840449      -0.15660925       0.00000344      -0.16761756       0.24684595      -0.00000529       0.11204245      -0.17035354       0.00000360
H       -1.46731991      -1.17688431      -0.90121971      -0.02303303       0.07152781       0.00719866      -0.17624020       0.20376276       0.14522469       0.16774672      -0.31496176       0.00000388      -0.01064561       0.03879589       0.25697373       0.13161377      -0.25689506       0.00002285       0.26227039       0.12170681      -0.00000323       0.04469295       0.14787579      -0.33509333      -0.42645717       0.20307413       0.33428655      -0.05010974      -0.27979909       0.18619182       0.12571172      -0.28365084      -0.00125232       0.20358506      -0.05481926      -0.00326009      -0.11391921      -0.19771224       0.07280009      -0.09943192      -0.44381123      -0.02122794      -0.18587509      -0.25240040       0.08167167      -0.00992895      -0.21165675      -0.02157166      -0.21678520      -0.25634650       0.09842120      -0.26165188      -0.30269846       0.11691153       0.10882198       0.17522959      -0.00415539      -0.04893354       0.11637381       0.03914240       0.02408742       0.20143801       0.01576263       0.03370464       0.01723672      -0.02063229       0.27006357       0.44143258      -0.21934998      -0.07500125      -0.09233370       0.06274402       0.13435837      -0.44453674      -0.07975441      -0.45897194       0.20084171       0.33819019       0.00142173      -0.01437724      -0.00094910      -0.16866345       0.07736011       0.12385643       0.13781233       0.10042534      -0.08918954      -0.43233465       0.00950821      -0.55276834      -0.03076054       0.00063043      -0.03898911      -0.38855873       0.00429256      -0.58670372      -0.01635797      -0.00041000      -0.02564220      -0.04081060       0.02629916      -0.02925833       0.00242432       0.00559240       0.00975410      -0.00472067      -0.00866414      -0.01711482       0.00515842       0.00579635       0.01473797
H       -1.46731042      -1.17683960       0.90124075       0.02303333      -0.07152980       0.00720195       0.17623580      -0.20375123       0.14523305       0.16775775      -0.31498371       0.00000686       0.01063771      -0.03875260       0.25697559       0.13161624      -0.25690146       0.00002016       0.26226953       0.12170837      -0.00000912      -0.04469391      -0.14787921      -0.33508519       0.42646250      -0.20305744       0.33429239       0.05009640       0.27984955       0.18617676       0.12571635      -0.28361181       0.00129065       0.20359152      -0.05480302       0.00327455       0.11392194       0.19773921       0.07278798      -0.09942002      -0.44378820       0.02125639       0.18587247       0.25238663       0.08165780      -0.00994001      -0.21167137       0.02157788       0.21678893       0.25635938       0.09840513       0.26165500       0.30273459       0.11688920       0.10881152       0.17520910       0.00414245      -0.04896213       0.11634832      -0.03915919       0.02407891       0.20142718      -0.01577508       0.03370743       0.01724197       0.02063293       0.27006106       0.44145546       0.21932032      -0.07500127      -0.09234110      -0.06273761      -0.13435838       0.44451594      -0.07977585      -0.45897434       0.20079749      -0.33819282      -0.00240649       0.01480353      -0.00167504      -0.16866530       0.07735731      -0.12385835       0.13780618       0.10042463       0.08918131       0.43246890      -0.00953741      -0.55298764       0.03076896      -0.00063221      -0.03900329      -0.38839960       0.00431917       0.58651413      -0.01634650      -0.00040897       0.02562826      -0.04081412       0.02630081       0.02926249       0.00242078       0.00559217      -0.00975009      -0.00471291      -0.00866355       0.01710598       0.00515262       0.00579598      -0.01473134
H        3.23727572       0.89972756      -0.00002419       0.00001254       0.00000851       0.52323539      -0.00000131      -0.00000267      -0.29312695      -0.14041746       0.36786117      -0.00001593      -0.00000545       0.00002569       0.29507452       0.13163423      -0.25694127       0.00002271       0.25253904       0.14327359      -0.00000640       0.00000126       0.00000457       0.26872609       0.00000050      -0.00000174       0.08015377       0.00000201       0.00004431       0.31679203       0.05729032      -0.39284134       0.00003586      -0.13440191       0.11337077      -0.00001605      -0.00000813      -0.00001928      -0.13589931       0.19650356       0.43324237      -0.00002227      -0.00000249      -0.00001024       0.05742695      -0.21622722      -0.51975074       0.00002985      -0.00003262      -0.00006827      -0.22401015       0.00002018       0.00004138       0.15075487       0.06847284       0.06091775       0.00000206      -0.13669139      -0.29661843       0.00001328       0.09589148       0.20387949      -0.00001435      -0.02095973      -0.06029168       0.00000007      -0.03451666      -0.13223796      -0.00000083      -0.10735463      -0.48483310      -0.00001161       0.00000021      -0.00000214       0.02014265       0.02580358       0.13996196       0.00085952       0.00003440       0.00025671      -0.73842668      -0.08581795      -0.39884144      -0.00016021      -0.07508123      -0.18413483      -0.00000932      -0.00000292       0.00000033      -0.00355338       0.00003578      -0.00000056       0.04759343       0.00227532       0.00049372      -0.00000092      -0.07167183      -0.00305770       0.00001821       0.01060288      -0.00387384       0.00000010       0.58732173      -0.16094955      -0.00001235       0.66308685      -0.18107917      -0.00001412       0.36928893      -0.09932017      -0.00000834
H        2.00035975       1.82263279       0.88015812      -0.38970035       0.25548151      -0.27186601       0.16878549      -0.20007444       0.14737525      -0.26629060       0.18782582       0.00001765       0.01003065      -0.03842018       0.34776801       0.13164083      -0.25692932       0.00002430       0.24855840       0.13758884      -0.00000610      -0.04637114      -0.14681771       0.34910521      -0.03932354       0.04548490      -0.02283457      -0.18613037      -0.19998300       0.24855723       0.31144170      -0.02932479       0.00065966      -0.33926892      -0.17215769      -0.00278925       0.14557211       0.17632194      -0.08047580      -0.12362475       0.00766069      -0.01350626      -0.06791210      -0.10147841       0.03297983       0.29101812       0.10162906       0.02731278       0.26701291       0.43337716      -0.14913693      -0.18076232      -0.30311621       0.10009753       0.29150040       0.25676395       0.01768002       0.27848046       0.14252928       0.03831266      -0.04590182       0.01001423      -0.03648165      -0.07086406      -0.04583906       0.02636839      -0.06835442      -0.10721110       0.06331540      -0.31662067      -0.41684712       0.23119345       0.01286135       0.00026374       0.00192454       0.13484118      -0.12842087       0.12170728      -0.46673629      -0.02279946      -0.07835063      -0.34318058       0.35780977      -0.32982506      -0.00419509       0.00137315       0.00449090      -0.01096643       0.02813717       0.03912881       0.14811459      -0.40570971      -0.55351962       0.00622564      -0.01742444      -0.02774605      -0.12568961       0.36306227       0.58069742      -0.00536172       0.01510332       0.02354325      -0.03514514       0.04493377       0.06170832      -0.03280182       0.03735052       0.04406343      -0.00323700      -0.02603458      -0.05164446
H        2.00032557       1.82263228      -0.88014938       0.38968091      -0.25548062      -0.27188155      -0.16877265       0.20006499       0.14738236      -0.26630908       0.18784216       0.00000009      -0.01004206       0.03846769       0.34776830       0.13163845      -0.25692296       0.00003087       0.24855897       0.13758713      -0.00000900       0.04636979       0.14681648       0.34910221       0.03932320      -0.04548397      -0.02283639       0.18607150       0.19998772       0.24854762       0.31148368      -0.02928780      -0.00062642      -0.33929479      -0.17218735       0.00277792      -0.14554871      -0.17630905      -0.08046630      -0.12366058       0.00761153       0.01349535       0.06792893       0.10147921       0.03297125       0.29107512       0.10171594      -0.02729764      -0.26693168      -0.43333772      -0.14912870       0.18071953       0.30309916       0.10009264       0.29153333       0.25682087      -0.01767720       0.27851221       0.14258290      -0.03831135      -0.04590944       0.00998680       0.03647474      -0.07086289      -0.04583262      -0.02636404      -0.06835308      -0.10721018      -0.06331219      -0.31661478      -0.41685389      -0.23118277      -0.01286713      -0.00026026       0.00192916       0.13374851      -0.12847331      -0.12152973       0.46720310       0.02235771      -0.07879047      -0.34295751       0.35782489       0.32980630      -0.00416307       0.00139010      -0.00448520       0.01096288      -0.02812162       0.03910378      -0.14804792       0.40543586      -0.55308054       0.00623228      -0.01743821       0.02776503      -0.12582386       0.36335062      -0.58109120      -0.00536490       0.01510911      -0.02355097      -0.03514875       0.04493546      -0.06171018      -0.03280208       0.03734692      -0.04405734      -0.00322888      -0.02604925       0.05166509
12
Properties=species:S:1:pos:R:3:xtb2_normal_mode_displacements_0:R:3:xtb2_normal_mode_displacements_1:R:3:xtb2_normal_mode_displacements_2:R:3:xtb2_normal_mode_displacements_3:R:3:xtb2_normal_mode_displacements_4:R:3:xtb2_normal_mode_displacements_5:R:3:xtb2_normal_mode_displacements_6:R:3:xtb2_normal_mode_displacements_7:R:3:xtb2_normal_mode_displacements_8:R:3:xtb2_normal_mode_displacements_9:R:3:xtb2_normal_mode_displacements_10:R:3:xtb2_normal_mode_displacements_11:R:3:xtb2_normal_mode_displacements_12:R:3:xtb2_normal_mode_displacements_13:R:3:xtb2_normal_mode_displacements_14:R:3:xtb2_normal_mode_displacements_15:R:3:xtb2_normal_mode_displacements_16:R:3:xtb2_normal_mode_displacements_17:R:3:xtb2_normal_mode_displacements_18:R:3:xtb2_normal_mode_displacements_19:R:3:xtb2_normal_mode_displacements_20:R:3:xtb2_normal_mode_displacements_21:R:3:xtb2_normal_mode_displacements_22:R:3:xtb2_normal_mode_displacements_23:R:3:xtb2_normal_mode_displacements_24:R:3:xtb2_normal_mode_displacements_25:R:3:xtb2_normal_mode_displacements_26:R:3:xtb2_normal_mode_displacements_27:R:3:xtb2_normal_mode_displacements_28:R:3:xtb2_normal_mode_displacements_29:R:3:xtb2_normal_mode_displacements_30:R:3:xtb2_normal_mode_displacements_31:R:3:xtb2_normal_mode_displacements_32:R:3:xtb2_normal_mode_displacements_33:R:3:xtb2_normal_mode_displacements_34:R:3:xtb2_normal_mode_displacements_35:R:3 butene=T reference=T _ConfigSet_loc=" / 0 / 0" xtb2_normal_mode_frequencies="-0.020805350599677645 -0.0012520287572930428 -0.0008057157555249398 -4.5646307594914854e-05 -1.544271636343004e-06 2.0070667760733657e-05 0.0007792852814774499 0.020007895212821186 0.030827178750387946 0.03379472539721994 0.06147046924481604 0.08694186489268312 0.11505838067939451 0.12427408663486034 0.12511644226890012 0.12691071213329774 0.13044988333222152 0.1391633835201524 0.14195157959406351 0.15814728268344924 0.161403301474211 0.17400433576408564 0.17465713361699353 0.18358617565523236 0.18451272219423798 0.18453214420220326 0.18474813708238022 0.21569178023426594 0.3710653957286146 0.37201378110443734 0.3729909202179395 0.3734662167474916 0.37645626122957077 0.3776743594254655 0.3781192902563234 0.379676400084026" pbc="F F F"
C       -0.23801015      -0.02473790      -0.00003511      -0.00000219       0.00000336       0.06748807      -0.00000559       0.00000916       0.12212985      -0.00614295      -0.09692342       0.00000606      -0.00000501       0.00002407       0.29206110       0.13163050      -0.25691768       0.00002379       0.25677989       0.12859307      -0.00000667       0.00000163       0.00000451      -0.05405953       0.00000299      -0.00000375      -0.09743338       0.00001026      -0.00001152      -0.17628007      -0.15989949       0.12211245      -0.00001533       0.01200567       0.17692842      -0.00000709       0.00000474      -0.00000819      -0.14139153      -0.03346491       0.08690673      -0.00000724       0.00000078      -0.00000096      -0.00122224       0.02641785      -0.04570419       0.00000106      -0.00000306       0.00000180       0.09531005      -0.00000429       0.00000765       0.10139995      -0.13752430      -0.17267510       0.00000252       0.02319795       0.20679016      -0.00001116      -0.08855670      -0.02362058      -0.00000150       0.03987610      -0.08167344       0.00000626       0.00648479       0.02268491      -0.00000070      -0.01422627       0.00480927      -0.00000080      -0.00000038      -0.00000073       0.01148138      -0.00519387      -0.00462566       0.00000003      -0.00000407      -0.00000610      -0.00033160       0.00415898       0.00502256      -0.00000046      -0.55546241      -0.07424367      -0.00001728      -0.00000071      -0.00000031       0.00179280      -0.00000007      -0.00000116      -0.00012193       0.00139831       0.00495002       0.00000006      -0.00092282       0.00483815      -0.00000038       0.01637363      -0.02591311       0.00000203      -0.02077876       0.02980516      -0.00000235       0.02835169      -0.04467337       0.00000347      -0.01735652       0.03406534      -0.00000244
C        1.58906596       0.01744815       0.00003507       0.00000248      -0.00000404      -0.04758114       0.00000487      -0.00000777      -0.14330379      -0.00260990       0.09284680      -0.00000763      -0.00000435       0.00002238       0.27498941       0.13163092      -0.25692797       0.00002184       0.25689140       0.13459017      -0.00000618      -0.00000103      -0.00000460       0.00726094      -0.00000254       0.00000268       0.04453399       0.00001204      -0.00001492      -0.22198727      -0.15883473       0.12881301      -0.00001835      -0.01985896      -0.16863397       0.00000972      -0.00000683       0.00000684       0.14939235       0.04389036      -0.09101025       0.00000701       0.00000317      -0.00000415      -0.03581761       0.01362209      -0.00488053       0.00000802       0.00000432      -0.00000772      -0.09567610      -0.00000354       0.00000275       0.08222047      -0.13336065      -0.28197104       0.00001021       0.02611065      -0.13426829       0.00000769      -0.10191264      -0.01324020      -0.00000399      -0.02938487       0.08349719      -0.00000518       0.01089938      -0.00969461       0.00000117      -0.00933056      -0.01438009       0.00000074      -0.00000062       0.00000017       0.00060586       0.02338722       0.01169582      -0.00001147       0.00002412       0.00001731       0.01055505       0.00971860      -0.01258606       0.00000254       0.54379582       0.07123561       0.00001871       0.00000018       0.00000008       0.00022403       0.00000188      -0.00000098       0.00148631      -0.00126622       0.00038203      -0.00000002      -0.00611694       0.00606801      -0.00000014      -0.00118201      -0.00189184       0.00000006       0.02560914      -0.04094076       0.00000331      -0.00864247       0.00685988      -0.00000064      -0.03178962       0.05562476      -0.00000426
H       -0.48793920       1.00481902      -0.00009868      -0.00000799       0.00001294       0.24073037      -0.00001597       0.00002701       0.44309473      -0.14260435      -0.17165367       0.00002342      -0.00000633       0.00002689       0.34029384       0.13164507      -0.25690780       0.00002798       0.25246350       0.12622903      -0.00000768       0.00000521       0.00001637       0.08091855       0.00000958      -0.00001007      -0.23001709       0.00001094      -0.00000788      -0.13405564      -0.29191125       0.04257858      -0.00001480       0.15496007       0.24046056      -0.00000564      -0.00002502       0.00002685       0.55583124       0.20434738       0.21511290      -0.00001770      -0.00000401       0.00004071       0.59991421       0.32683170       0.12343428      -0.00002387       0.00001952      -0.00001364      -0.28563826       0.00000848      -0.00002303      -0.40478354      -0.19671369      -0.20921844       0.00000259       0.16774450       0.26476721      -0.00000327       0.60384886       0.35623080       0.00000292       0.57782630       0.22519915       0.00001200      -0.09406086      -0.03294611      -0.00000456      -0.00650655       0.00895070      -0.00000115       0.00000264      -0.00000174      -0.02891030      -0.01490400      -0.00968248      -0.00000381      -0.00001750      -0.00001322       0.00144163      -0.01658667      -0.00653431       0.00000042       0.11550566       0.34134069      -0.00001428      -0.00000065       0.00000129      -0.00120519      -0.00000607       0.00001240       0.00191578       0.02681777      -0.04941507       0.00000311       0.02596940      -0.05214566       0.00000450      -0.19482453       0.35551819      -0.00002604       0.22291874      -0.39554666       0.00002940      -0.31027083       0.55823993      -0.00004127       0.21747286      -0.39443643       0.00002913
H        1.84203199      -1.00946224       0.00010091       0.00000784      -0.00001563      -0.24023474       0.00001594      -0.00002628      -0.46365068       0.13404370       0.16680055      -0.00002494      -0.00000297       0.00001944       0.22671233       0.13163114      -0.25692585       0.00001765       0.26120454       0.13692367      -0.00000517      -0.00000457      -0.00001689      -0.12839147      -0.00000964       0.00001033       0.19526079       0.00001711      -0.00001739      -0.29244002      -0.28499698       0.05396827      -0.00002182      -0.14217064      -0.22123064       0.00000915       0.00002006      -0.00003705      -0.61807004       0.00398675      -0.11100080      -0.00001066      -0.00000379       0.00004175       0.61239598       0.29541506       0.14904564      -0.00004484       0.00000089      -0.00000079       0.02215083       0.00001379      -0.00002130      -0.36238215      -0.26130287      -0.34744879       0.00001759      -0.16359992      -0.21875292       0.00000853       0.48278358       0.30632025       0.00000288      -0.69820572      -0.29455875      -0.00001027       0.02592478      -0.00170746      -0.00000047       0.14231053       0.07013525      -0.00000169       0.00000177       0.00000092      -0.00802904      -0.04305025      -0.02800456      -0.00000805      -0.00005238      -0.00002959       0.00527918      -0.00992177      -0.02082881       0.00000470      -0.09364233      -0.31960744       0.00001265       0.00000102      -0.00000173       0.00073319      -0.00001375       0.00002477       0.00369220      -0.00147123       0.00050098      -0.00000003       0.05798142      -0.10653127       0.00000944       0.00263952       0.00228123       0.00000018      -0.29272474       0.53003730      -0.00004083       0.06111051      -0.10580323       0.00000794       0.37384828      -0.67477344       0.00005153
C        2.17790427       1.19663898      -0.00000015       0.00000000       0.00000064      -0.00163317       0.00000376      -0.00000455      -0.03036321      -0.17854881       0.21668266      -0.00000111      -0.00000537       0.00002404       0.31873323       0.13163731      -0.25693466       0.00002510       0.25133789       0.13850348      -0.00000696      -0.00000009       0.00000014       0.25757433      -0.00000038       0.00000026       0.01732631      -0.00001027       0.00000881       0.15158778       0.13399870      -0.08703780       0.00001304      -0.19513550      -0.13125230      -0.00000206       0.00000013       0.00000124       0.01471269       0.11134166       0.06340881       0.00000288      -0.00000205       0.00000127      -0.03023449      -0.09497275       0.02562032      -0.00000832      -0.00000859       0.00000933       0.11557687       0.00000568      -0.00000408      -0.08465415       0.10623428       0.24745484      -0.00001057      -0.05345672       0.10850493      -0.00000744       0.04664189      -0.02488755       0.00000462       0.00622164       0.02293161      -0.00000181       0.01072908       0.02900301      -0.00000043       0.06860267       0.11099975       0.00000030       0.00000067      -0.00000013      -0.00200733      -0.02778977       0.00307268      -0.00007572      -0.00004478       0.00000457       0.06540240       0.05772947      -0.01541711       0.00001262      -0.05318765      -0.03068693      -0.00000054       0.00000055      -0.00000131      -0.00638645      -0.00000883       0.00002204       0.08727075      -0.00118803       0.00286338      -0.00000153       0.02733381      -0.05831576       0.00003092      -0.00000593      -0.00203408       0.00000061      -0.04197136       0.00514487       0.00000124      -0.04932291       0.00929947       0.00000061      -0.03079494       0.01285262      -0.00000109
C       -0.83055677      -1.18349251       0.00000735       0.00000014      -0.00000024      -0.00923303      -0.00000311       0.00000435       0.01633727       0.16758870      -0.22243930      -0.00000102      -0.00000401       0.00002213       0.24922850       0.13161823      -0.25690841       0.00002061       0.26227070       0.12463071      -0.00000594      -0.00000027      -0.00000116      -0.30214224      -0.00000018       0.00000057       0.01828406      -0.00000660       0.00001084       0.14867095       0.12293809      -0.09287306       0.00001257       0.19936508       0.12648929       0.00000007       0.00000171      -0.00000039      -0.01526793      -0.14599208      -0.05166386       0.00000016      -0.00000333      -0.00000220      -0.06812771      -0.05111669       0.04280996       0.00000149       0.00000110      -0.00000124      -0.07839776       0.00000358      -0.00000650      -0.09855629       0.11449488       0.15934526      -0.00000230       0.01352189      -0.16686128       0.00001043       0.05423512      -0.03820069       0.00000307      -0.00115186      -0.00966331      -0.00000001      -0.09094559      -0.10727753       0.00000456       0.02782329       0.02415416      -0.00000094       0.00000140       0.00000440       0.06661808       0.03954585      -0.04696205       0.00000071       0.00004190      -0.00004973       0.00082544       0.01353395      -0.02021955       0.00000051       0.05749175       0.03690425       0.00000028      -0.00001106       0.00000358       0.08720454      -0.00000070       0.00000033       0.00603910       0.06206633      -0.00382978       0.00001505       0.00325967      -0.00116040       0.00000110      -0.03474246       0.05627525      -0.00000170      -0.00989519       0.01287362      -0.00000069       0.01524023      -0.01978951       0.00000121      -0.01040151       0.01321791      -0.00000087
H       -0.27901954      -2.12131749       0.00002865       0.00000160      -0.00000146      -0.10083381      -0.00000212      -0.00000281      -0.31356864       0.29843930      -0.13695535      -0.00001907      -0.00000332       0.00002146       0.20189117       0.13161165      -0.25690993       0.00001646       0.26639292       0.12732349      -0.00000494      -0.00000156      -0.00000491      -0.42507244      -0.00000404      -0.00001339      -0.46092315      -0.00002245       0.00000669       0.40859597       0.38165451       0.07589547       0.00002524       0.43622519       0.27931690       0.00000177      -0.00001008      -0.00000438       0.12476939       0.32998317       0.24392942      -0.00000037       0.00001315       0.00001284       0.11444621       0.29543610       0.25465887      -0.00000927       0.00000138       0.00000446       0.15024402      -0.00001978      -0.00001408       0.17756247       0.18647989       0.20179481      -0.00001051      -0.43823424      -0.43602967       0.00000258      -0.07133306      -0.09829992       0.00000167       0.03023229       0.00699931       0.00000197       0.44795246       0.27634825      -0.00002255      -0.11353140      -0.07232474       0.00000564      -0.00001157      -0.00002387      -0.74144767       0.32463142       0.19171584       0.00000742       0.00034882       0.00020606      -0.01951584       0.12125078       0.07063811      -0.00000541      -0.12631981      -0.07943893      -0.00000047       0.00000335      -0.00001053       0.04451319       0.00000101      -0.00000196       0.00328012       0.00989503       0.02265317       0.00000683      -0.00872374       0.01488923       0.00000021       0.50696671      -0.75174654       0.00001735       0.10840449      -0.15660925       0.00000344      -0.16761756       0.24684595      -0.00000529       0.11204245      -0.17035354       0.00000360
H       -1.48286025      -1.18820873      -0.89116229      -0.02303303       0.07152781       0.00719866      -0.17624020       0.20376276       0.14522469       0.16774672      -0.31496176       0.00000388      -0.01064561       0.03879589       0.25697373       0.13161377      -0.25689506       0.00002285       0.26227039       0.12170681      -0.00000323       0.04469295       0.14787579      -0.33509333      -0.42645717       0.20307413       0.33428655      -0.05010974      -0.27979909       0.18619182       0.12571172      -0.28365084      -0.00125232       0.20358506      -0.05481926      -0.00326009      -0.11391921      -0.19771224       0.07280009      -0.09943192      -0.44381123      -0.02122794      -0.18587509      -0.25240040       0.08167167      -0.00992895      -0.21165675      -0.02157166      -0.21678520      -0.25634650       0.09842120      -0.26165188      -0.30269846       0.11691153       0.10882198       0.17522959      -0.00415539      -0.04893354       0.11637381       0.03914240       0.02408742       0.20143801       0.01576263       0.03370464       0.01723672      -0.02063229       0.27006357       0.44143258      -0.21934998      -0.07500125      -0.09233370       0.06274402       0.13435837      -0.44453674      -0.07975441      -0.45897194       0.20084171       0.33819019       0.00142173      -0.01437724      -0.00094910      -0.16866345       0.07736011       0.12385643       0.13781233       0.10042534      -0.08918954      -0.43233465       0.00950821      -0.55276834      -0.03076054       0.00063043      -0.03898911      -0.38855873       0.00429256      -0.58670372      -0.01635797      -0.00041000      -0.02564220      -0.04081060       0.02629916      -0.02925833       0.00242432       0.00559240       0.00975410      -0.00472067      -0.00866414      -0.01711482       0.00515842       0.00579635       0.01473797
H       -1.48285007      -1.18816393       0.89118426       0.02303333      -0.07152980       0.00720195       0.17623580      -0.20375123       0.14523305       0.16775775      -0.31498371       0.00000686       0.01063771      -0.03875260       0.25697559       0.13161624      -0.25690146       0.00002016       0.26226953       0.12170837      -0.00000912      -0.04469391      -0.14787921      -0.33508519       0.42646250      -0.20305744       0.33429239       0.05009640       0.27984955       0.18617676       0.12571635      -0.28361181       0.00129065       0.20359152      -0.05480302       0.00327455       0.11392194       0.19773921       0.07278798      -0.09942002      -0.44378820       0.02125639       0.18587247       0.25238663       0.08165780      -0.00994001      -0.21167137       0.02157788       0.21678893       0.25635938       0.09840513       0.26165500       0.30273459       0.11688920       0.10881152       0.17520910       0.00414245      -0.04896213       0.11634832      -0.03915919       0.02407891       0.20142718      -0.01577508       0.03370743       0.01724197       0.02063293       0.27006106       0.44145546       0.21932032      -0.07500127      -0.09234110      -0.06273761      -0.13435838       0.44451594      -0.07977585      -0.45897434       0.20079749      -0.33819282      -0.00240649       0.01480353      -0.00167504      -0.16866530       0.07735731      -0.12385835       0.13780618       0.10042463       0.08918131       0.43246890      -0.00953741      -0.55298764       0.03076896      -0.00063221      -0.03900329      -0.38839960       0.00431917       0.58651413      -0.01634650      -0.00040897       0.02562826      -0.04081412       0.02630081       0.02926249       0.00242078       0.00559217      -0.00975009      -0.00471291      -0.00866355       0.01710598       0.00515262       0.00579598      -0.01473134
H        3.24574222       0.92049144      -0.00002314       0.00001254       0.00000851       0.52323539      -0.00000131      -0.00000267      -0.29312695      -0.14041746       0.36786117      -0.00001593      -0.00000545       0.00002569       0.29507452       0.13163423      -0.25694127       0.00002271       0.25253904       0.14327359      -0.00000640       0.00000126       0.00000457       0.26872609       0.00000050      -0.00000174       0.08015377       0.00000201       0.00004431       0.31679203       0.05729032      -0.39284134       0.00003586      -0.13440191       0.11337077      -0.00001605      -0.00000813      -0.00001928      -0.13589931       0.19650356       0.43324237      -0.00002227      -0.00000249      -0.00001024       0.05742695      -0.21622722      -0.51975074       0.00002985      -0.00003262      -0.00006827      -0.22401015       0.00002018       0.00004138       0.15075487       0.06847284       0.06091775       0.00000206      -0.13669139      -0.29661843       0.00001328       0.09589148       0.20387949      -0.00001435      -0.02095973      -0.06029168       0.00000007      -0.03451666      -0.13223796      -0.00000083      -0.10735463      -0.48483310      -0.00001161       0.00000021      -0.00000214       0.02014265       0.02580358       0.13996196       0.00085952       0.00003440       0.00025671      -0.73842668      -0.08581795      -0.39884144      -0.00016021      -0.07508123      -0.18413483      -0.00000932      -0.00000292       0.00000033      -0.00355338       0.00003578      -0.00000056       0.04759343       0.00227532       0.00049372      -0.00000092      -0.07167183      -0.00305770       0.00001821       0.01060288      -0.00387384       0.00000010       0.58732173      -0.16094955      -0.00001235       0.66308685      -0.18107917      -0.00001412       0.36928893      -0.09932017      -0.00000834
H        2.00083281       1.82247795       0.87965171      -0.38970035       0.25548151      -0.27186601       0.16878549      -0.20007444       0.14737525      -0.26629060       0.18782582       0.00001765       0.01003065      -0.03842018       0.34776801       0.13164083      -0.25692932       0.00002430       0.24855840       0.13758884      -0.00000610      -0.04637114      -0.14681771       0.34910521      -0.03932354       0.04548490      -0.02283457      -0.18613037      -0.19998300       0.24855723       0.31144170      -0.02932479       0.00065966      -0.33926892      -0.17215769      -0.00278925       0.14557211       0.17632194      -0.08047580      -0.12362475       0.00766069      -0.01350626      -0.06791210      -0.10147841       0.03297983       0.29101812       0.10162906       0.02731278       0.26701291       0.43337716      -0.14913693      -0.18076232      -0.30311621       0.10009753       0.29150040       0.25676395       0.01768002       0.27848046       0.14252928       0.03831266      -0.04590182       0.01001423      -0.03648165      -0.07086406      -0.04583906       0.02636839      -0.06835442      -0.10721110       0.06331540      -0.31662067      -0.41684712       0.23119345       0.01286135       0.00026374       0.00192454       0.13484118      -0.12842087       0.12170728      -0.46673629      -0.02279946      -0.07835063      -0.34318058       0.35780977      -0.32982506      -0.00419509       0.00137315       0.00449090      -0.01096643       0.02813717       0.03912881       0.14811459      -0.40570971      -0.55351962       0.00622564      -0.01742444      -0.02774605      -0.12568961       0.36306227       0.58069742      -0.00536172       0.01510332       0.02354325      -0.03514514       0.04493377       0.06170832      -0.03280182       0.03735052       0.04406343      -0.00323700      -0.02603458      -0.05164446
H        2.00079502       1.82247552      -0.87964361       0.38968091      -0.25548062      -0.27188155      -0.16877265       0.20006499       0.14738236      -0.26630908       0.18784216       0.00000009      -0.01004206       0.03846769       0.34776830       0.13163845      -0.25692296       0.00003087       0.24855897       0.13758713      -0.00000900       0.04636979       0.14681648       0.34910221       0.03932320      -0.04548397      -0.02283639       0.18607150       0.19998772       0.24854762       0.31148368      -0.02928780      -0.00062642      -0.33929479      -0.17218735       0.00277792      -0.14554871      -0.17630905      -0.08046630      -0.12366058       0.00761153       0.01349535       0.06792893       0.10147921       0.03297125       0.29107512       0.10171594      -0.02729764      -0.26693168      -0.43333772      -0.14912870       0.18071953       0.30309916       0.10009264       0.29153333       0.25682087      -0.01767720       0.27851221       0.14258290      -0.03831135      -0.04590944       0.00998680       0.03647474      -0.07086289      -0.04583262      -0.02636404      -0.06835308      -0.10721018      -0.06331219      -0.31661478      -0.41685389      -0.23118277      -0.01286713      -0.00026026       0.00192916       0.13374851      -0.12847331      -0.12152973       0.46720310       0.02235771      -0.07879047      -0.34295751       0.35782489       0.32980630      -0.00416307       0.00139010      -0.00448520       0.01096288      -0.02812162       0.03910378      -0.14804792       0.40543586      -0.55308054       0.00623228      -0.01743821       0.02776503      -0.12582386       0.36335062      -0.58109120      -0.00536490       0.01510911      -0.02355097      -0.03514875       0.04493546      -0.06171018      -0.03280208       0.03734692      -0.04405734      -0.00322888      -0.02604925       0.05166509
12
Properties=species:S:1:pos:R:3:xtb2_normal_mode_displacements_0:R:3:xtb2_normal_mode_displacements_1:R:3:xtb2_normal_mode_displacements_2:R:3:xtb2_normal_mode_displacements_3:R:3:xtb2_normal_mode_displacements_4:R:3:xtb2_normal_mode_displacements_5:R:3:xtb2_normal_mode_displacements_6:R:3:xtb2_normal_mode_displacements_7:R:3:xtb2_normal_mode_displacements_8:R:3:xtb2_normal_mode_displacements_9:R:3:xtb2_normal_mode_displacements_10:R:3:xtb2_normal_mode_displacements_11:R:3:xtb2_normal_mode_displacements_12:R:3:xtb2_normal_mode_displacements_13:R:3:xtb2_normal_mode_displacements_14:R:3:xtb2_normal_mode_displacements_15:R:3:xtb2_normal_mode_displacements_16:R:3:xtb2_normal_mode_displacements_17:R:3:xtb2_normal_mode_displacements_18:R:3:xtb2_normal_mode_displacements_19:R:3:xtb2_normal_mode_displacements_20:R:3:xtb2_normal_mode_displacements_21:R:3:xtb2_normal_mode_displacements_22:R:3:xtb2_normal_mode_displacements_23:R:3:xtb2_normal_mode_displacements_24:R:3:xtb2_normal_mode_displacements_25:R:3:xtb2_normal_mode_displacements_26:R:3:xtb2_normal_mode_displacements_27:R:3:xtb2_normal_mode_displacements_28:R:3:xtb2_normal_mode_displacements_29:R:3:xtb2_normal_mode_displacements_30:R:3:xtb2_normal_mode_displacements_31:R:3:xtb2_normal_mode_displacements_32:R:3:xtb2_normal_mode_displacements_33:R:3:xtb2_normal_mode_displacements_34:R:3:xtb2_normal_mode_displacements_35:R:3 butene=T reference=T _ConfigSet_loc=" / 0 / 0" xtb2_normal_mode_frequencies="-0.020805350599677645 -0.0012520287572930428 -0.0008057157555249398 -4.5646307594914854e-05 -1.544271636343004e-06 2.0070667760733657e-05 0.0007792852814774499 0.020007895212821186 0.030827178750387946 0.03379472539721994 0.06147046924481604 0.08694186489268312 0.11505838067939451 0.12427408663486034 0.12511644226890012 0.12691071213329774 0.13044988333222152 0.1391633835201524 0.14195157959406351 0.15814728268344924 0.161403301474211 0.17400433576408564 0.17465713361699353 0.18358617565523236 0.18451272219423798 0.18453214420220326 0.18474813708238022 0.21569178023426594 0.3710653957286146 0.37201378110443734 0.3729909202179395 0.3734662167474916 0.37645626122957077 0.3776743594254655 0.3781192902563234 0.379676400084026" pbc="F F F"
C        0.01703327       0.00935146      -0.00002718      -0.00000219       0.00000336       0.06748807      -0.00000559       0.00000916       0.12212985      -0.00614295      -0.09692342       0.00000606      -0.00000501       0.00002407       0.29206110       0.13163050      -0.25691768       0.00002379       0.25677989       0.12859307      -0.00000667       0.00000163       0.00000451      -0.05405953       0.00000299      -0.00000375      -0.09743338       0.00001026      -0.00001152      -0.17628007      -0.15989949       0.12211245      -0.00001533       0.01200567       0.17692842      -0.00000709       0.00000474      -0.00000819      -0.14139153      -0.03346491       0.08690673      -0.00000724       0.00000078      -0.00000096      -0.00122224       0.02641785      -0.04570419       0.00000106      -0.00000306       0.00000180       0.09531005      -0.00000429       0.00000765       0.10139995      -0.13752430      -0.17267510       0.00000252       0.02319795       0.20679016      -0.00001116      -0.08855670      -0.02362058      -0.00000150       0.03987610      -0.08167344       0.00000626       0.00648479       0.02268491      -0.00000070      -0.01422627       0.00480927      -0.00000080      -0.00000038      -0.00000073       0.01148138      -0.00519387      -0.00462566       0.00000003      -0.00000407      -0.00000610      -0.00033160       0.00415898       0.00502256      -0.00000046      -0.55546241      -0.07424367      -0.00001728      -0.00000071      -0.00000031       0.00179280      -0.00000007      -0.00000116      -0.00012193       0.00139831       0.00495002       0.00000006      -0.00092282       0.00483815      -0.00000038       0.01637363      -0.02591311       0.00000203      -0.02077876       0.02980516      -0.00000235       0.02835169      -0.04467337       0.00000347      -0.01735652       0.03406534      -0.00000244
C        1.33937932      -0.01526005       0.00002648       0.00000248      -0.00000404      -0.04758114       0.00000487      -0.00000777      -0.14330379      -0.00260990       0.09284680      -0.00000763      -0.00000435       0.00002238       0.27498941       0.13163092      -0.25692797       0.00002184       0.25689140       0.13459017      -0.00000618      -0.00000103      -0.00000460       0.00726094      -0.00000254       0.00000268       0.04453399       0.00001204      -0.00001492      -0.22198727      -0.15883473       0.12881301      -0.00001835      -0.01985896      -0.16863397       0.00000972      -0.00000683       0.00000684       0.14939235       0.04389036      -0.09101025       0.00000701       0.00000317      -0.00000415      -0.03581761       0.01362209      -0.00488053       0.00000802       0.00000432      -0.00000772      -0.09567610      -0.00000354       0.00000275       0.08222047      -0.13336065      -0.28197104       0.00001021       0.02611065      -0.13426829       0.00000769      -0.10191264      -0.01324020      -0.00000399      -0.02938487       0.08349719      -0.00000518       0.01089938      -0.00969461       0.00000117      -0.00933056      -0.01438009       0.00000074      -0.00000062       0.00000017       0.00060586       0.02338722       0.01169582      -0.00001147       0.00002412       0.00001731       0.01055505       0.00971860      -0.01258606       0.00000254       0.54379582       0.07123561       0.00001871       0.00000018       0.00000008       0.00022403       0.00000188      -0.00000098       0.00148631      -0.00126622       0.00038203      -0.00000002      -0.00611694       0.00606801      -0.00000014      -0.00118201      -0.00189184       0.00000006       0.02560914      -0.04094076       0.00000331      -0.00864247       0.00685988      -0.00000064      -0.03178962       0.05562476      -0.00000426
H       -0.50330317       0.95941564      -0.00009678      -0.00000799       0.00001294       0.24073037      -0.00001597       0.00002701       0.44309473      -0.14260435      -0.17165367       0.00002342      -0.00000633       0.00002689       0.34029384       0.13164507      -0.25690780       0.00002798       0.25246350       0.12622903      -0.00000768       0.00000521       0.00001637       0.08091855       0.00000958      -0.00001007      -0.23001709       0.00001094      -0.00000788      -0.13405564      -0.29191125       0.04257858      -0.00001480       0.15496007       0.24046056      -0.00000564      -0.00002502       0.00002685       0.55583124       0.20434738       0.21511290      -0.00001770      -0.00000401       0.00004071       0.59991421       0.32683170       0.12343428      -0.00002387       0.00001952      -0.00001364      -0.28563826       0.00000848      -0.00002303      -0.40478354      -0.19671369      -0.20921844       0.00000259       0.16774450       0.26476721      -0.00000327       0.60384886       0.35623080       0.00000292       0.57782630       0.22519915       0.00001200      -0.09406086      -0.03294611      -0.00000456      -0.00650655       0.00895070      -0.00000115       0.00000264      -0.00000174      -0.02891030      -0.01490400      -0.00968248      -0.00000381      -0.00001750      -0.00001322       0.00144163      -0.01658667      -0.00653431       0.00000042       0.11550566       0.34134069      -0.00001428      -0.00000065       0.00000129      -0.00120519      -0.00000607       0.00001240       0.00191578       0.02681777      -0.04941507       0.00000311       0.02596940      -0.05214566       0.00000450      -0.19482453       0.35551819      -0.00002604       0.22291874      -0.39554666       0.00002940      -0.31027083       0.55823993      -0.00004127       0.21747286      -0.39443643       0.00002913
H        1.85448781      -0.96694970       0.00009923       0.00000784      -0.00001563      -0.24023474       0.00001594      -0.00002628      -0.46365068       0.13404370       0.16680055      -0.00002494      -0.00000297       0.00001944       0.22671233       0.13163114      -0.25692585       0.00001765       0.26120454       0.13692367      -0.00000517      -0.00000457      -0.00001689      -0.12839147      -0.00000964       0.00001033       0.19526079       0.00001711      -0.00001739      -0.29244002      -0.28499698       0.05396827      -0.00002182      -0.14217064      -0.22123064       0.00000915       0.00002006      -0.00003705      -0.61807004       0.00398675      -0.11100080      -0.00001066      -0.00000379       0.00004175       0.61239598       0.29541506       0.14904564      -0.00004484       0.00000089      -0.00000079       0.02215083       0.00001379      -0.00002130      -0.36238215      -0.26130287      -0.34744879       0.00001759      -0.16359992      -0.21875292       0.00000853       0.48278358       0.30632025       0.00000288      -0.69820572      -0.29455875      -0.00001027       0.02592478      -0.00170746      -0.00000047       0.14231053       0.07013525      -0.00000169       0.00000177       0.00000092      -0.00802904      -0.04305025      -0.02800456      -0.00000805      -0.00005238      -0.00002959       0.00527918      -0.00992177      -0.02082881       0.00000470      -0.09364233      -0.31960744       0.00001265       0.00000102      -0.00000173       0.00073319      -0.00001375       0.00002477       0.00369220      -0.00147123       0.00050098      -0.00000003       0.05798142      -0.10653127       0.00000944       0.00263952       0.00228123       0.00000018      -0.29272474       0.53003730      -0.00004083       0.06111051      -0.10580323       0.00000794       0.37384828      -0.67477344       0.00005153
C        2.20232565       1.21072904       0.00000010       0.00000000       0.00000064      -0.00163317       0.00000376      -0.00000455      -0.03036321      -0.17854881       0.21668266      -0.00000111      -0.00000537       0.00002404       0.31873323       0.13163731      -0.25693466       0.00002510       0.25133789       0.13850348      -0.00000696      -0.00000009       0.00000014       0.25757433      -0.00000038       0.00000026       0.01732631      -0.00001027       0.00000881       0.15158778       0.13399870      -0.08703780       0.00001304      -0.19513550      -0.13125230      -0.00000206       0.00000013       0.00000124       0.01471269       0.11134166       0.06340881       0.00000288      -0.00000205       0.00000127      -0.03023449      -0.09497275       0.02562032      -0.00000832      -0.00000859       0.00000933       0.11557687       0.00000568      -0.00000408      -0.08465415       0.10623428       0.24745484      -0.00001057      -0.05345672       0.10850493      -0.00000744       0.04664189      -0.02488755       0.00000462       0.00622164       0.02293161      -0.00000181       0.01072908       0.02900301      -0.00000043       0.06860267       0.11099975       0.00000030       0.00000067      -0.00000013      -0.00200733      -0.02778977       0.00307268      -0.00007572      -0.00004478       0.00000457       0.06540240       0.05772947      -0.01541711       0.00001262      -0.05318765      -0.03068693      -0.00000054       0.00000055      -0.00000131      -0.00638645      -0.00000883       0.00002204       0.08727075      -0.00118803       0.00286338      -0.00000153       0.02733381      -0.05831576       0.00003092      -0.00000593      -0.00203408       0.00000061      -0.04197136       0.00514487       0.00000124      -0.04932291       0.00929947       0.00000061      -0.03079494       0.01285262      -0.00000109
C       -0.85695440      -1.20043729       0.00000722       0.00000014      -0.00000024      -0.00923303      -0.00000311       0.00000435       0.01633727       0.16758870      -0.22243930      -0.00000102      -0.00000401       0.00002213       0.24922850       0.13161823      -0.25690841       0.00002061       0.26227070       0.12463071      -0.00000594      -0.00000027      -0.00000116      -0.30214224      -0.00000018       0.00000057       0.01828406      -0.00000660       0.00001084       0.14867095       0.12293809      -0.09287306       0.00001257       0.19936508       0.12648929       0.00000007       0.00000171      -0.00000039      -0.01526793      -0.14599208      -0.05166386       0.00000016      -0.00000333      -0.00000220      -0.06812771      -0.05111669       0.04280996       0.00000149       0.00000110      -0.00000124      -0.07839776       0.00000358      -0.00000650      -0.09855629       0.11449488       0.15934526      -0.00000230       0.01352189      -0.16686128       0.00001043       0.05423512      -0.03820069       0.00000307      -0.00115186      -0.00966331      -0.00000001      -0.09094559      -0.10727753       0.00000456       0.02782329       0.02415416      -0.00000094       0.00000140       0.00000440       0.06661808       0.03954585      -0.04696205       0.00000071       0.00004190      -0.00004973       0.00082544       0.01353395      -0.02021955       0.00000051       0.05749175       0.03690425       0.00000028      -0.00001106       0.00000358       0.08720454      -0.00000070       0.00000033       0.00603910       0.06206633      -0.00382978       0.00001505       0.00325967      -0.00116040       0.00000110      -0.03474246       0.05627525      -0.00000170      -0.00989519       0.01287362      -0.00000069       0.01524023      -0.01978951       0.00000121      -0.01040151       0.01321791      -0.00000087
H       -0.26221713      -2.11075093       0.00002871       0.00000160      -0.00000146      -0.10083381      -0.00000212      -0.00000281      -0.31356864       0.29843930      -0.13695535      -0.00001907      -0.00000332       0.00002146       0.20189117       0.13161165      -0.25690993       0.00001646       0.26639292       0.12732349      -0.00000494      -0.00000156      -0.00000491      -0.42507244      -0.00000404      -0.00001339      -0.46092315      -0.00002245       0.00000669       0.40859597       0.38165451       0.07589547       0.00002524       0.43622519       0.27931690       0.00000177      -0.00001008      -0.00000438       0.12476939       0.32998317       0.24392942      -0.00000037       0.00001315       0.00001284       0.11444621       0.29543610       0.25465887      -0.00000927       0.00000138       0.00000446       0.15024402      -0.00001978      -0.00001408       0.17756247       0.18647989       0.20179481      -0.00001051      -0.43823424      -0.43602967       0.00000258      -0.07133306      -0.09829992       0.00000167       0.03023229       0.00699931       0.00000197       0.44795246       0.27634825      -0.00002255      -0.11353140      -0.07232474       0.00000564      -0.00001157      -0.00002387      -0.74144767       0.32463142       0.19171584       0.00000742       0.00034882       0.00020606      -0.01951584       0.12125078       0.07063811      -0.00000541      -0.12631981      -0.07943893      -0.00000047       0.00000335      -0.00001053       0.04451319       0.00000101      -0.00000196       0.00328012       0.00989503       0.02265317       0.00000683      -0.00872374       0.01488923       0.00000021       0.50696671      -0.75174654       0.00001735       0.10840449      -0.15660925       0.00000344      -0.16761756       0.24684595      -0.00000529       0.11204245      -0.17035354       0.00000360
H       -1.50119134      -1.20156679      -0.87929876      -0.02303303       0.07152781       0.00719866      -0.17624020       0.20376276       0.14522469       0.16774672      -0.31496176       0.00000388      -0.01064561       0.03879589       0.25697373       0.13161377      -0.25689506       0.00002285       0.26227039       0.12170681      -0.00000323       0.04469295       0.14787579      -0.33509333      -0.42645717       0.20307413       0.33428655      -0.05010974      -0.27979909       0.18619182       0.12571172      -0.28365084      -0.00125232       0.20358506      -0.05481926      -0.00326009      -0.11391921      -0.19771224       0.07280009      -0.09943192      -0.44381123      -0.02122794      -0.18587509      -0.25240040       0.08167167      -0.00992895      -0.21165675      -0.02157166      -0.21678520      -0.25634650       0.09842120      -0.26165188      -0.30269846       0.11691153       0.10882198       0.17522959      -0.00415539      -0.04893354       0.11637381       0.03914240       0.02408742       0.20143801       0.01576263       0.03370464       0.01723672      -0.02063229       0.27006357       0.44143258      -0.21934998      -0.07500125      -0.09233370       0.06274402       0.13435837      -0.44453674      -0.07975441      -0.45897194       0.20084171       0.33819019       0.00142173      -0.01437724      -0.00094910      -0.16866345       0.07736011       0.12385643       0.13781233       0.10042534      -0.08918954      -0.43233465       0.00950821      -0.55276834      -0.03076054       0.00063043      -0.03898911      -0.38855873       0.00429256      -0.58670372      -0.01635797      -0.00041000      -0.02564220      -0.04081060       0.02629916      -0.02925833       0.00242432       0.00559240       0.00975410      -0.00472067      -0.00866414      -0.01711482       0.00515842       0.00579635       0.01473797
H       -1.50118034      -1.20152190       0.87932182       0.02303333      -0.07152980       0.00720195       0.17623580      -0.20375123       0.14523305       0.16775775      -0.31498371       0.00000686       0.01063771      -0.03875260       0.25697559       0.13161624      -0.25690146       0.00002016       0.26226953       0.12170837      -0.00000912      -0.04469391      -0.14787921      -0.33508519       0.42646250      -0.20305744       0.33429239       0.05009640       0.27984955       0.18617676       0.12571635      -0.28361181       0.00129065       0.20359152      -0.05480302       0.00327455       0.11392194       0.19773921       0.07278798      -0.09942002      -0.44378820       0.02125639       0.18587247       0.25238663       0.08165780      -0.00994001      -0.21167137       0.02157788       0.21678893       0.25635938       0.09840513       0.26165500       0.30273459       0.11688920       0.10881152       0.17520910       0.00414245      -0.04896213       0.11634832      -0.03915919       0.02407891       0.20142718      -0.01577508       0.03370743       0.01724197       0.02063293       0.27006106       0.44145546       0.21932032      -0.07500127      -0.09234110      -0.06273761      -0.13435838       0.44451594      -0.07977585      -0.45897434       0.20079749      -0.33819282      -0.00240649       0.01480353      -0.00167504      -0.16866530       0.07735731      -0.12385835       0.13780618       0.10042463       0.08918131       0.43246890      -0.00953741      -0.55298764       0.03076896      -0.00063221      -0.03900329      -0.38839960       0.00431917       0.58651413      -0.01634650      -0.00040897       0.02562826      -0.04081412       0.02630081       0.02926249       0.00242078       0.00559217      -0.00975009      -0.00471291      -0.00866355       0.01710598       0.00515262       0.00579598      -0.01473134
H        3.25572914       0.94498411      -0.00002190       0.00001254       0.00000851       0.52323539      -0.00000131      -0.00000267      -0.29312695      -0.14041746       0.36786117      -0.00001593      -0.00000545       0.00002569       0.29507452       0.13163423      -0.25694127       0.00002271       0.25253904       0.14327359      -0.00000640       0.00000126       0.00000457       0.26872609       0.00000050      -0.00000174       0.08015377       0.00000201       0.00004431       0.31679203       0.05729032      -0.39284134       0.00003586      -0.13440191       0.11337077      -0.00001605      -0.00000813      -0.00001928      -0.13589931       0.19650356       0.43324237      -0.00002227      -0.00000249      -0.00001024       0.05742695      -0.21622722      -0.51975074       0.00002985      -0.00003262      -0.00006827      -0.22401015       0.00002018       0.00004138       0.15075487       0.06847284       0.06091775       0.00000206      -0.13669139      -0.29661843       0.00001328       0.09589148       0.20387949      -0.00001435      -0.02095973      -0.06029168       0.00000007      -0.03451666      -0.13223796      -0.00000083      -0.10735463      -0.48483310      -0.00001161       0.00000021      -0.00000214       0.02014265       0.02580358       0.13996196       0.00085952       0.00003440       0.00025671      -0.73842668      -0.08581795      -0.39884144      -0.00016021      -0.07508123      -0.18413483      -0.00000932      -0.00000292       0.00000033      -0.00355338       0.00003578      -0.00000056       0.04759343       0.00227532       0.00049372      -0.00000092      -0.07167183      -0.00305770       0.00001821       0.01060288      -0.00387384       0.00000010       0.58732173      -0.16094955      -0.00001235       0.66308685      -0.18107917      -0.00001412       0.36928893      -0.09932017      -0.00000834
H        2.00139082       1.82229530       0.87905435      -0.38970035       0.25548151      -0.27186601       0.16878549      -0.20007444       0.14737525      -0.26629060       0.18782582       0.00001765       0.01003065      -0.03842018       0.34776801       0.13164083      -0.25692932       0.00002430       0.24855840       0.13758884      -0.00000610      -0.04637114      -0.14681771       0.34910521      -0.03932354       0.04548490      -0.02283457      -0.18613037      -0.19998300       0.24855723       0.31144170      -0.02932479       0.00065966      -0.33926892      -0.17215769      -0.00278925       0.14557211       0.17632194      -0.08047580      -0.12362475       0.00766069      -0.01350626      -0.06791210      -0.10147841       0.03297983       0.29101812       0.10162906       0.02731278       0.26701291       0.43337716      -0.14913693      -0.18076232      -0.30311621       0.10009753       0.29150040       0.25676395       0.01768002       0.27848046       0.14252928       0.03831266      -0.04590182       0.01001423      -0.03648165      -0.07086406      -0.04583906       0.02636839      -0.06835442      -0.10721110       0.06331540      -0.31662067      -0.41684712       0.23119345       0.01286135       0.00026374       0.00192454       0.13484118      -0.12842087       0.12170728      -0.46673629      -0.02279946      -0.07835063      -0.34318058       0.35780977      -0.32982506      -0.00419509       0.00137315       0.00449090      -0.01096643       0.02813717       0.03912881       0.14811459      -0.40570971      -0.55351962       0.00622564      -0.01742444      -0.02774605      -0.12568961       0.36306227       0.58069742      -0.00536172       0.01510332       0.02354325      -0.03514514       0.04493377       0.06170832      -0.03280182       0.03735052       0.04406343      -0.00323700      -0.02603458      -0.05164446
H        2.00134877       1.82229062      -0.87904701       0.38968091      -0.25548062      -0.27188155      -0.16877265       0.20006499       0.14738236      -0.26630908       0.18784216       0.00000009      -0.01004206       0.03846769       0.34776830       0.13163845      -0.25692296       0.00003087       0.24855897       0.13758713      -0.00000900       0.04636979       0.14681648       0.34910221       0.03932320      -0.04548397      -0.02283639       0.18607150       0.19998772       0.24854762       0.31148368      -0.02928780      -0.00062642      -0.33929479      -0.17218735       0.00277792      -0.14554871      -0.17630905      -0.08046630      -0.12366058       0.00761153       0.01349535       0.06792893       0.10147921       0.03297125       0.29107512       0.10171594      -0.02729764      -0.26693168      -0.43333772      -0.14912870       0.18071953       0.30309916       0.10009264       0.29153333       0.25682087      -0.01767720       0.27851221       0.14258290      -0.03831135      -0.04590944       0.00998680       0.03647474      -0.07086289      -0.04583262      -0.02636404      -0.06835308      -0.10721018      -0.06331219      -0.31661478      -0.41685389      -0.23118277      -0.01286713      -0.00026026       0.00192916       0.13374851      -0.12847331      -0.12152973       0.46720310       0.02235771      -0.07879047      -0.34295751       0.35782489       0.32980630      -0.00416307       0.00139010      -0.00448520       0.01096288      -0.02812162       0.03910378      -0.14804792       0.40543586      -0.55308054       0.00623228      -0.01743821       0.02776503      -0.12582386       0.36335062      -0.58109120      -0.00536490       0.01510911      -0.02355097      -0.03514875       0.04493546      -0.06171018      -0.03280208       0.03734692      -0.04405734      -0.00322888      -0.02604925       0.05166509
12
Properties=species:S:1:pos:R:3:xtb2_normal_mode_displacements_0:R:3:xtb2_normal_mode_displacements_1:R:3:xtb2_normal_mode_displacements_2:R:3:xtb2_normal_mode_displacements_3:R:3:xtb2_normal_mode_displacements_4:R:3:xtb2_normal_mode_displacements_5:R:3:xtb2_normal_mode_displacements_6:R:3:xtb2_normal_mode_displacements_7:R:3:xtb2_normal_mode_displacements_8:R:3:xtb2_normal_mode_displacements_9:R:3:xtb2_normal_mode_displacements_10:R:3:xtb2_normal_mode_displacements_11:R:3:xtb2_normal_mode_displacements_12:R:3:xtb2_normal_mode_displacements_13:R:3:xtb2_normal_mode_displacements_14:R:3:xtb2_normal_mode_displacements_15:R:3:xtb2_normal_mode_displacements_16:R:3:xtb2_normal_mode_displacements_17:R:3:xtb2_normal_mode_displacements_18:R:3:xtb2_normal_mode_displacements_19:R:3:xtb2_normal_mode_displacements_20:R:3:xtb2_normal_mode_displacements_21:R:3:xtb2_normal_mode_displacements_22:R:3:xtb2_normal_mode_displacements_23:R:3:xtb2_normal_mode_displacements_24:R:3:xtb2_normal_mode_displacements_25:R:3:xtb2_normal_mode_displacements_26:R:3:xtb2_normal_mode_displacements_27:R:3:xtb2_normal_mode_displacements_28:R:3:xtb2_normal_mode_displacements_29:R:3:xtb2_normal_mode_displacements_30:R:3:xtb2_normal_mode_displacements_31:R:3:xtb2_normal_mode_displacements_32:R:3:xtb2_normal_mode_displacements_33:R:3:xtb2_normal_mode_displacements_34:R:3:xtb2_normal_mode_displacements_35:R:3 butene=T reference=T _ConfigSet_loc=" / 0 / 0" xtb2_normal_mode_frequencies="-0.020805350599677645 -0.0012520287572930428 -0.0008057157555249398 -4.5646307594914854e-05 -1.544271636343004e-06 2.0070667760733657e-05 0.0007792852814774499 0.020007895212821186 0.030827178750387946 0.03379472539721994 0.06147046924481604 0.08694186489268312 0.11505838067939451 0.12427408663486034 0.12511644226890012 0.12691071213329774 0.13044988333222152 0.1391633835201524 0.14195157959406351 0.15814728268344924 0.161403301474211 0.17400433576408564 0.17465713361699353 0.18358617565523236 0.18451272219423798 0.18453214420220326 0.18474813708238022 0.21569178023426594 0.3710653957286146 0.37201378110443734 0.3729909202179395 0.3734662167474916 0.37645626122957077 0.3776743594254655 0.3781192902563234 0.379676400084026" pbc="F F F"
C        0.27207669       0.04344082      -0.00001925      -0.00000219       0.00000336       0.06748807      -0.00000559       0.00000916       0.12212985      -0.00614295      -0.09692342       0.00000606      -0.00000501       0.00002407       0.29206110       0.13163050      -0.25691768       0.00002379       0.25677989       0.12859307      -0.00000667       0.00000163       0.00000451      -0.05405953       0.00000299      -0.00000375      -0.09743338       0.00001026      -0.00001152      -0.17628007      -0.15989949       0.12211245      -0.00001533       0.01200567       0.17692842      -0.00000709       0.00000474      -0.00000819      -0.14139153      -0.03346491       0.08690673      -0.00000724       0.00000078      -0.00000096      -0.00122224       0.02641785      -0.04570419       0.00000106      -0.00000306       0.00000180       0.09531005      -0.00000429       0.00000765       0.10139995      -0.13752430      -0.17267510       0.00000252       0.02319795       0.20679016      -0.00001116      -0.08855670      -0.02362058      -0.00000150       0.03987610      -0.08167344       0.00000626       0.00648479       0.02268491      -0.00000070      -0.01422627       0.00480927      -0.00000080      -0.00000038      -0.00000073       0.01148138      -0.00519387      -0.00462566       0.00000003      -0.00000407      -0.00000610      -0.00033160       0.00415898       0.00502256      -0.00000046      -0.55546241      -0.07424367      -0.00001728      -0.00000071      -0.00000031       0.00179280      -0.00000007      -0.00000116      -0.00012193       0.00139831       0.00495002       0.00000006      -0.00092282       0.00483815      -0.00000038       0.01637363      -0.02591311       0.00000203      -0.02077876       0.02980516      -0.00000235       0.02835169      -0.04467337       0.00000347      -0.01735652       0.03406534      -0.00000244
C        1.08969268      -0.04796825       0.00001789       0.00000248      -0.00000404      -0.04758114       0.00000487      -0.00000777      -0.14330379      -0.00260990       0.09284680      -0.00000763      -0.00000435       0.00002238       0.27498941       0.13163092      -0.25692797       0.00002184       0.25689140       0.13459017      -0.00000618      -0.00000103      -0.00000460       0.00726094      -0.00000254       0.00000268       0.04453399       0.00001204      -0.00001492      -0.22198727      -0.15883473       0.12881301      -0.00001835      -0.01985896      -0.16863397       0.00000972      -0.00000683       0.00000684       0.14939235       0.04389036      -0.09101025       0.00000701       0.00000317      -0.00000415      -0.03581761       0.01362209      -0.00488053       0.00000802       0.00000432      -0.00000772      -0.09567610      -0.00000354       0.00000275       0.08222047      -0.13336065      -0.28197104       0.00001021       0.02611065      -0.13426829       0.00000769      -0.10191264      -0.01324020      -0.00000399      -0.02938487       0.08349719      -0.00000518       0.01089938      -0.00969461       0.00000117      -0.00933056      -0.01438009       0.00000074      -0.00000062       0.00000017       0.00060586       0.02338722       0.01169582      -0.00001147       0.00002412       0.00001731       0.01055505       0.00971860      -0.01258606       0.00000254       0.54379582       0.07123561       0.00001871       0.00000018       0.00000008       0.00022403       0.00000188      -0.00000098       0.00148631      -0.00126622       0.00038203      -0.00000002      -0.00611694       0.00606801      -0.00000014      -0.00118201      -0.00189184       0.00000006       0.02560914      -0.04094076       0.00000331      -0.00864247       0.00685988      -0.00000064      -0.03178962       0.05562476      -0.00000426
H       -0.51866714       0.91401226      -0.00009488      -0.00000799       0.00001294       0.24073037      -0.00001597       0.00002701       0.44309473      -0.14260435      -0.17165367       0.00002342      -0.00000633       0.00002689       0.34029384       0.13164507      -0.25690780       0.00002798       0.25246350       0.12622903      -0.00000768       0.00000521       0.00001637       0.08091855       0.00000958      -0.00001007      -0.23001709       0.00001094      -0.00000788      -0.13405564      -0.29191125       0.04257858      -0.00001480       0.15496007       0.24046056      -0.00000564      -0.00002502       0.00002685       0.55583124       0.20434738       0.21511290      -0.00001770      -0.00000401       0.00004071       0.59991421       0.32683170       0.12343428      -0.00002387       0.00001952      -0.00001364      -0.28563826       0.00000848      -0.00002303      -0.40478354      -0.19671369      -0.20921844       0.00000259       0.16774450       0.26476721      -0.00000327       0.60384886       0.35623080       0.00000292       0.57782630       0.22519915       0.00001200      -0.09406086      -0.03294611      -0.00000456      -0.00650655       0.00895070      -0.00000115       0.00000264      -0.00000174      -0.02891030      -0.01490400      -0.00968248      -0.00000381      -0.00001750      -0.00001322       0.00144163      -0.01658667      -0.00653431       0.00000042       0.11550566       0.34134069      -0.00001428      -0.00000065       0.00000129      -0.00120519      -0.00000607       0.00001240       0.00191578       0.02681777      -0.04941507       0.00000311       0.02596940      -0.05214566       0.00000450      -0.19482453       0.35551819      -0.00002604       0.22291874      -0.39554666       0.00002940      -0.31027083       0.55823993      -0.00004127       0.21747286      -0.39443643       0.00002913
H        1.86694363      -0.92443716       0.00009755       0.00000784      -0.00001563      -0.24023474       0.00001594      -0.00002628      -0.46365068       0.13404370       0.16680055      -0.00002494      -0.00000297       0.00001944       0.22671233       0.13163114      -0.25692585       0.00001765       0.26120454       0.13692367      -0.00000517      -0.00000457      -0.00001689      -0.12839147      -0.00000964       0.00001033       0.19526079       0.00001711      -0.00001739      -0.29244002      -0.28499698       0.05396827      -0.00002182      -0.14217064      -0.22123064       0.00000915       0.00002006      -0.00003705      -0.61807004       0.00398675      -0.11100080      -0.00001066      -0.00000379       0.00004175       0.61239598       0.29541506       0.14904564      -0.00004484       0.00000089      -0.00000079       0.02215083       0.00001379      -0.00002130      -0.36238215      -0.26130287      -0.34744879       0.00001759      -0.16359992      -0.21875292       0.00000853       0.48278358       0.30632025       0.00000288      -0.69820572      -0.29455875      -0.00001027       0.02592478      -0.00170746      -0.00000047       0.14231053       0.07013525      -0.00000169       0.00000177       0.00000092      -0.00802904      -0.04305025      -0.02800456      -0.00000805      -0.00005238      -0.00002959       0.00527918      -0.00992177      -0.02082881       0.00000470      -0.09364233      -0.31960744       0.00001265       0.00000102      -0.00000173       0.00073319      -0.00001375       0.00002477       0.00369220      -0.00147123       0.00050098      -0.00000003       0.05798142      -0.10653127       0.00000944       0.00263952       0.00228123       0.00000018      -0.29272474       0.53003730      -0.00004083       0.06111051      -0.10580323       0.00000794       0.37384828      -0.67477344       0.00005153
C        2.22674703       1.22481910       0.00000035       0.00000000       0.00000064      -0.00163317       0.00000376      -0.00000455      -0.03036321      -0.17854881       0.21668266      -0.00000111      -0.00000537       0.00002404       0.31873323       0.13163731      -0.25693466       0.00002510       0.25133789       0.13850348      -0.00000696      -0.00000009       0.00000014       0.25757433      -0.00000038       0.00000026       0.01732631      -0.00001027       0.00000881       0.15158778       0.13399870      -0.08703780       0.00001304      -0.19513550      -0.13125230      -0.00000206       0.00000013       0.00000124       0.01471269       0.11134166       0.06340881       0.00000288      -0.00000205       0.00000127      -0.03023449      -0.09497275       0.02562032      -0.00000832      -0.00000859       0.00000933       0.11557687       0.00000568      -0.00000408      -0.08465415       0.10623428       0.24745484      -0.00001057      -0.05345672       0.10850493      -0.00000744       0.04664189      -0.02488755       0.00000462       0.00622164       0.02293161      -0.00000181       0.01072908       0.02900301      -0.00000043       0.06860267       0.11099975       0.00000030       0.00000067      -0.00000013      -0.00200733      -0.02778977       0.00307268      -0.00007572      -0.00004478       0.00000457       0.06540240       0.05772947      -0.01541711       0.00001262      -0.05318765      -0.03068693      -0.00000054       0.00000055      -0.00000131      -0.00638645      -0.00000883       0.00002204       0.08727075      -0.00118803       0.00286338      -0.00000153       0.02733381      -0.05831576       0.00003092      -0.00000593      -0.00203408       0.00000061      -0.04197136       0.00514487       0.00000124      -0.04932291       0.00929947       0.00000061      -0.03079494       0.01285262      -0.00000109
C       -0.88335203      -1.21738207       0.00000709       0.00000014      -0.00000024      -0.00923303      -0.00000311       0.00000435       0.01633727       0.16758870      -0.22243930      -0.00000102      -0.00000401       0.00002213       0.24922850       0.13161823      -0.25690841       0.00002061       0.26227070       0.12463071      -0.00000594      -0.00000027      -0.00000116      -0.30214224      -0.00000018       0.00000057       0.01828406      -0.00000660       0.00001084       0.14867095       0.12293809      -0.09287306       0.00001257       0.19936508       0.12648929       0.00000007       0.00000171      -0.00000039      -0.01526793      -0.14599208      -0.05166386       0.00000016      -0.00000333      -0.00000220      -0.06812771      -0.05111669       0.04280996       0.00000149       0.00000110      -0.00000124      -0.07839776       0.00000358      -0.00000650      -0.09855629       0.11449488       0.15934526      -0.00000230       0.01352189      -0.16686128       0.00001043       0.05423512      -0.03820069       0.00000307      -0.00115186      -0.00966331      -0.00000001      -0.09094559      -0.10727753       0.00000456       0.02782329       0.02415416      -0.00000094       0.00000140       0.00000440       0.06661808       0.03954585      -0.04696205       0.00000071       0.00004190      -0.00004973       0.00082544       0.01353395      -0.02021955       0.00000051       0.05749175       0.03690425       0.00000028      -0.00001106       0.00000358       0.08720454      -0.00000070       0.00000033       0.00603910       0.06206633      -0.00382978       0.00001505       0.00325967      -0.00116040       0.00000110      -0.03474246       0.05627525      -0.00000170      -0.00989519       0.01287362      -0.00000069       0.01524023      -0.01978951       0.00000121      -0.01040151       0.01321791      -0.00000087
H       -0.24541472      -2.10018437       0.00002877       0.00000160      -0.00000146      -0.10083381      -0.00000212      -0.00000281      -0.31356864       0.29843930      -0.13695535      -0.00001907      -0.00000332       0.00002146       0.20189117       0.13161165      -0.25690993       0.00001646       0.26639292       0.12732349      -0.00000494      -0.00000156      -0.00000491      -0.42507244      -0.00000404      -0.00001339      -0.46092315      -0.00002245       0.00000669       0.40859597       0.38165451       0.07589547       0.00002524       0.43622519       0.27931690       0.00000177      -0.00001008      -0.00000438       0.12476939       0.32998317       0.24392942      -0.00000037       0.00001315       0.00001284       0.11444621       0.29543610       0.25465887      -0.00000927       0.00000138       0.00000446       0.15024402      -0.00001978      -0.00001408       0.17756247       0.18647989       0.20179481      -0.00001051      -0.43823424      -0.43602967       0.00000258      -0.07133306      -0.09829992       0.00000167       0.03023229       0.00699931       0.00000197       0.44795246       0.27634825      -0.00002255      -0.11353140      -0.07232474       0.00000564      -0.00001157      -0.00002387      -0.74144767       0.32463142       0.19171584       0.00000742       0.00034882       0.00020606      -0.01951584       0.12125078       0.07063811      -0.00000541      -0.12631981      -0.07943893      -0.00000047       0.00000335      -0.00001053       0.04451319       0.00000101      -0.00000196       0.00328012       0.00989503       0.02265317       0.00000683      -0.00872374       0.01488923       0.00000021       0.50696671      -0.75174654       0.00001735       0.10840449      -0.15660925       0.00000344      -0.16761756       0.24684595      -0.00000529       0.11204245      -0.17035354       0.00000360
H       -1.51952243      -1.21492485      -0.86743523      -0.02303303       0.07152781       0.00719866      -0.17624020       0.20376276       0.14522469       0.16774672      -0.31496176       0.00000388      -0.01064561       0.03879589       0.25697373       0.13161377      -0.25689506       0.00002285       0.26227039       0.12170681      -0.00000323       0.04469295       0.14787579      -0.33509333      -0.42645717       0.20307413       0.33428655      -0.05010974      -0.27979909       0.18619182       0.12571172      -0.28365084      -0.00125232       0.20358506      -0.05481926      -0.00326009      -0.11391921      -0.19771224       0.07280009      -0.09943192      -0.44381123      -0.02122794      -0.18587509      -0.25240040       0.08167167      -0.00992895      -0.21165675      -0.02157166      -0.21678520      -0.25634650       0.09842120      -0.26165188      -0.30269846       0.11691153       0.10882198       0.17522959      -0.00415539      -0.04893354       0.11637381       0.03914240       0.02408742       0.20143801       0.01576263       0.03370464       0.01723672      -0.02063229       0.27006357       0.44143258      -0.21934998      -0.07500125      -0.09233370       0.06274402       0.13435837      -0.44453674      -0.07975441      -0.45897194       0.20084171       0.33819019       0.00142173      -0.01437724      -0.00094910      -0.16866345       0.07736011       0.12385643       0.13781233       0.10042534      -0.08918954      -0.43233465       0.00950821      -0.55276834      -0.03076054       0.00063043      -0.03898911      -0.38855873       0.00429256      -0.58670372      -0.01635797      -0.00041000      -0.02564220      -0.04081060       0.02629916      -0.02925833       0.00242432       0.00559240       0.00975410      -0.00472067      -0.00866414      -0.01711482       0.00515842       0.00579635       0.01473797
H       -1.51951061      -1.21487987       0.86745938       0.02303333      -0.07152980       0.00720195       0.17623580      -0.20375123       0.14523305       0.16775775      -0.31498371       0.00000686       0.01063771      -0.03875260       0.25697559       0.13161624      -0.25690146       0.00002016       0.26226953       0.12170837      -0.00000912      -0.04469391      -0.14787921      -0.33508519       0.42646250      -0.20305744       0.33429239       0.05009640       0.27984955       0.18617676       0.12571635      -0.28361181       0.00129065       0.20359152      -0.05480302       0.00327455       0.11392194       0.19773921       0.07278798      -0.09942002      -0.44378820       0.02125639       0.18587247       0.25238663       0.08165780      -0.00994001      -0.21167137       0.02157788       0.21678893       0.25635938       0.09840513       0.26165500       0.30273459       0.11688920       0.10881152       0.17520910       0.00414245      -0.04896213       0.11634832      -0.03915919       0.02407891       0.20142718      -0.01577508       0.03370743       0.01724197       0.02063293       0.27006106       0.44145546       0.21932032      -0.07500127      -0.09234110      -0.06273761      -0.13435838       0.44451594      -0.07977585      -0.45897434       0.20079749      -0.33819282      -0.00240649       0.01480353      -0.00167504      -0.16866530       0.07735731      -0.12385835       0.13780618       0.10042463       0.08918131       0.43246890      -0.00953741      -0.55298764       0.03076896      -0.00063221      -0.03900329      -0.38839960       0.00431917       0.58651413      -0.01634650      -0.00040897       0.02562826      -0.04081412       0.02630081       0.02926249       0.00242078       0.00559217      -0.00975009      -0.00471291      -0.00866355       0.01710598       0.00515262       0.00579598      -0.01473134
H        3.26571606       0.96947678      -0.00002066       0.00001254       0.00000851       0.52323539      -0.00000131      -0.00000267      -0.29312695      -0.14041746       0.36786117      -0.00001593      -0.00000545       0.00002569       0.29507452       0.13163423      -0.25694127       0.00002271       0.25253904       0.14327359      -0.00000640       0.00000126       0.00000457       0.26872609       0.00000050      -0.00000174       0.08015377       0.00000201       0.00004431       0.31679203       0.05729032      -0.39284134       0.00003586      -0.13440191       0.11337077      -0.00001605      -0.00000813      -0.00001928      -0.13589931       0.19650356       0.43324237      -0.00002227      -0.00000249      -0.00001024       0.05742695      -0.21622722      -0.51975074       0.00002985      -0.00003262      -0.00006827      -0.22401015       0.00002018       0.00004138       0.15075487       0.06847284       0.06091775       0.00000206      -0.13669139      -0.29661843       0.00001328       0.09589148       0.20387949      -0.00001435      -0.02095973      -0.06029168       0.00000007      -0.03451666      -0.13223796      -0.00000083      -0.10735463      -0.48483310      -0.00001161       0.00000021      -0.00000214       0.02014265       0.02580358       0.13996196       0.00085952       0.00003440       0.00025671      -0.73842668      -0.08581795      -0.39884144      -0.00016021      -0.07508123      -0.18413483      -0.00000932      -0.00000292       0.00000033      -0.00355338       0.00003578      -0.00000056       0.04759343       0.00227532       0.00049372      -0.00000092      -0.07167183      -0.00305770       0.00001821       0.01060288      -0.00387384       0.00000010       0.58732173      -0.16094955      -0.00001235       0.66308685      -0.18107917      -0.00001412       0.36928893      -0.09932017      -0.00000834
H        2.00194883       1.82211265       0.87845699      -0.38970035       0.25548151      -0.27186601       0.16878549      -0.20007444       0.14737525      -0.26629060       0.18782582       0.00001765       0.01003065      -0.03842018       0.34776801       0.13164083      -0.25692932       0.00002430       0.24855840       0.13758884      -0.00000610      -0.04637114      -0.14681771       0.34910521      -0.03932354       0.04548490      -0.02283457      -0.18613037      -0.19998300       0.24855723       0.31144170      -0.02932479       0.00065966      -0.33926892      -0.17215769      -0.00278925       0.14557211       0.17632194      -0.08047580      -0.12362475       0.00766069      -0.01350626      -0.06791210      -0.10147841       0.03297983       0.29101812       0.10162906       0.02731278       0.26701291       0.43337716      -0.14913693      -0.18076232      -0.30311621       0.10009753       0.29150040       0.25676395       0.01768002       0.27848046       0.14252928       0.03831266      -0.04590182       0.01001423      -0.03648165      -0.07086406      -0.04583906       0.02636839      -0.06835442      -0.10721110       0.06331540      -0.31662067      -0.41684712       0.23119345       0.01286135       0.00026374       0.00192454       0.13484118      -0.12842087       0.12170728      -0.46673629      -0.02279946      -0.07835063      -0.34318058       0.35780977      -0.32982506      -0.00419509       0.00137315       0.00449090      -0.01096643       0.02813717       0.03912881       0.14811459      -0.40570971      -0.55351962       0.00622564      -0.01742444      -0.02774605      -0.12568961       0.36306227       0.58069742      -0.00536172       0.01510332       0.02354325      -0.03514514       0.04493377       0.06170832      -0.03280182       0.03735052       0.04406343      -0.00323700      -0.02603458      -0.05164446
H        2.00190252       1.82210572      -0.87845041       0.38968091      -0.25548062      -0.27188155      -0.16877265       0.20006499       0.14738236      -0.26630908       0.18784216       0.00000009      -0.01004206       0.03846769       0.34776830       0.13163845      -0.25692296       0.00003087       0.24855897       0.13758713      -0.00000900       0.04636979       0.14681648       0.34910221       0.03932320      -0.04548397      -0.02283639       0.18607150       0.19998772       0.24854762       0.31148368      -0.02928780      -0.00062642      -0.33929479      -0.17218735       0.00277792      -0.14554871      -0.17630905      -0.08046630      -0.12366058       0.00761153       0.01349535       0.06792893       0.10147921       0.03297125       0.29107512       0.10171594      -0.02729764      -0.26693168      -0.43333772      -0.14912870       0.18071953       0.30309916       0.10009264       0.29153333       0.25682087      -0.01767720       0.27851221       0.14258290      -0.03831135      -0.04590944       0.00998680       0.03647474      -0.07086289      -0.04583262      -0.02636404      -0.06835308      -0.10721018      -0.06331219      -0.31661478      -0.41685389      -0.23118277      -0.01286713      -0.00026026       0.00192916       0.13374851      -0.12847331      -0.12152973       0.46720310       0.02235771      -0.07879047      -0.34295751       0.35782489       0.32980630      -0.00416307       0.00139010      -0.00448520       0.01096288      -0.02812162       0.03910378      -0.14804792       0.40543586      -0.55308054       0.00623228      -0.01743821       0.02776503      -0.12582386       0.36335062      -0.58109120      -0.00536490       0.01510911      -0.02355097      -0.03514875       0.04493546      -0.06171018      -0.03280208       0.03734692      -0.04405734      -0.00322888      -0.02604925       0.05166509
12
Properties=species:S:1:pos:R:3:xtb2_normal_mode_displacements_0:R:3:xtb2_normal_mode_displacements_1:R:3:xtb2_normal_mode_displacements_2:R:3:xtb2_normal_mode_displacements_3:R:3:xtb2_normal_mode_displacements_4:R:3:xtb2_normal_mode_displacements_5:R:3:xtb2_normal_mode_displacements_6:R:3:xtb2_normal_mode_displacements_7:R:3:xtb2_normal_mode_displacements_8:R:3:xtb2_normal_mode_displacements_9:R:3:xtb2_normal_mode_displacements_10:R:3:xtb2_normal_mode_displacements_11:R:3:xtb2_normal_mode_displacements_12:R:3:xtb2_normal_mode_displacements_13:R:3:xtb2_normal_mode_displacements_14:R:3:xtb2_normal_mode_displacements_15:R:3:xtb2_normal_mode_displacements_16:R:3:xtb2_normal_mode_displacements_17:R:3:xtb2_normal_mode_displacements_18:R:3:xtb2_normal_mode_displacements_19:R:3:xtb2_normal_mode_displacements_20:R:3:xtb2_normal_mode_displacements_21:R:3:xtb2_normal_mode_displacements_22:R:3:xtb2_normal_mode_displacements_23:R:3:xtb2_normal_mode_displacements_24:R:3:xtb2_normal_mode_displacements_25:R:3:xtb2_normal_mode_displacements_26:R:3:xtb2_normal_mode_displacements_27:R:3:xtb2_normal_mode_displacements_28:R:3:xtb2_normal_mode_displacements_29:R:3:xtb2_normal_mode_displacements_30:R:3:xtb2_normal_mode_displacements_31:R:3:xtb2_normal_mode_displacements_32:R:3:xtb2_normal_mode_displacements_33:R:3:xtb2_normal_mode_displacements_34:R:3:xtb2_normal_mode_displacements_35:R:3 butene=T reference=T _ConfigSet_loc=" / 0 / 0" xtb2_normal_mode_frequencies="-0.020805350599677645 -0.0012520287572930428 -0.0008057157555249398 -4.5646307594914854e-05 -1.544271636343004e-06 2.0070667760733657e-05 0.0007792852814774499 0.020007895212821186 0.030827178750387946 0.03379472539721994 0.06147046924481604 0.08694186489268312 0.11505838067939451 0.12427408663486034 0.12511644226890012 0.12691071213329774 0.13044988333222152 0.1391633835201524 0.14195157959406351 0.15814728268344924 0.161403301474211 0.17400433576408564 0.17465713361699353 0.18358617565523236 0.18451272219423798 0.18453214420220326 0.18474813708238022 0.21569178023426594 0.3710653957286146 0.37201378110443734 0.3729909202179395 0.3734662167474916 0.37645626122957077 0.3776743594254655 0.3781192902563234 0.379676400084026" pbc="F F F"
C        0.48829206       0.07234039      -0.00001252      -0.00000219       0.00000336       0.06748807      -0.00000559       0.00000916       0.12212985      -0.00614295      -0.09692342       0.00000606      -0.00000501       0.00002407       0.29206110       0.13163050      -0.25691768       0.00002379       0.25677989       0.12859307      -0.00000667       0.00000163       0.00000451      -0.05405953       0.00000299      -0.00000375      -0.09743338       0.00001026      -0.00001152      -0.17628007      -0.15989949       0.12211245      -0.00001533       0.01200567       0.17692842      -0.00000709       0.00000474      -0.00000819      -0.14139153      -0.03346491       0.08690673      -0.00000724       0.00000078      -0.00000096      -0.00122224       0.02641785      -0.04570419       0.00000106      -0.00000306       0.00000180       0.09531005      -0.00000429       0.00000765       0.10139995      -0.13752430      -0.17267510       0.00000252       0.02319795       0.20679016      -0.00001116      -0.08855670      -0.02362058      -0.00000150       0.03987610      -0.08167344       0.00000626       0.00648479       0.02268491      -0.00000070      -0.01422627       0.00480927      -0.00000080      -0.00000038      -0.00000073       0.01148138      -0.00519387      -0.00462566       0.00000003      -0.00000407      -0.00000610      -0.00033160       0.00415898       0.00502256      -0.00000046      -0.55546241      -0.07424367      -0.00001728      -0.00000071      -0.00000031       0.00179280      -0.00000007      -0.00000116      -0.00012193       0.00139831       0.00495002       0.00000006      -0.00092282       0.00483815      -0.00000038       0.01637363      -0.02591311       0.00000203      -0.02077876       0.02980516      -0.00000235       0.02835169      -0.04467337       0.00000347      -0.01735652       0.03406534      -0.00000244
C        0.87801856      -0.07569692       0.00001061       0.00000248      -0.00000404      -0.04758114       0.00000487      -0.00000777      -0.14330379      -0.00260990       0.09284680      -0.00000763      -0.00000435       0.00002238       0.27498941       0.13163092      -0.25692797       0.00002184       0.25689140       0.13459017      -0.00000618      -0.00000103      -0.00000460       0.00726094      -0.00000254       0.00000268       0.04453399       0.00001204      -0.00001492      -0.22198727      -0.15883473       0.12881301      -0.00001835      -0.01985896      -0.16863397       0.00000972      -0.00000683       0.00000684       0.14939235       0.04389036      -0.09101025       0.00000701       0.00000317      -0.00000415      -0.03581761       0.01362209      -0.00488053       0.00000802       0.00000432      -0.00000772      -0.09567610      -0.00000354       0.00000275       0.08222047      -0.13336065      -0.28197104       0.00001021       0.02611065      -0.13426829       0.00000769      -0.10191264      -0.01324020      -0.00000399      -0.02938487       0.08349719      -0.00000518       0.01089938      -0.00969461       0.00000117      -0.00933056      -0.01438009       0.00000074      -0.00000062       0.00000017       0.00060586       0.02338722       0.01169582      -0.00001147       0.00002412       0.00001731       0.01055505       0.00971860      -0.01258606       0.00000254       0.54379582       0.07123561       0.00001871       0.00000018       0.00000008       0.00022403       0.00000188      -0.00000098       0.00148631      -0.00126622       0.00038203      -0.00000002      -0.00611694       0.00606801      -0.00000014      -0.00118201      -0.00189184       0.00000006       0.02560914      -0.04094076       0.00000331      -0.00864247       0.00685988      -0.00000064      -0.03178962       0.05562476      -0.00000426
H       -0.53169208       0.87552113      -0.00009327      -0.00000799       0.00001294       0.24073037      -0.00001597       0.00002701       0.44309473      -0.14260435      -0.17165367       0.00002342      -0.00000633       0.00002689       0.34029384       0.13164507      -0.25690780       0.00002798       0.25246350       0.12622903      -0.00000768       0.00000521       0.00001637       0.08091855       0.00000958      -0.00001007      -0.23001709       0.00001094      -0.00000788      -0.13405564      -0.29191125       0.04257858      -0.00001480       0.15496007       0.24046056      -0.00000564      -0.00002502       0.00002685       0.55583124       0.20434738       0.21511290      -0.00001770      -0.00000401       0.00004071       0.59991421       0.32683170       0.12343428      -0.00002387       0.00001952      -0.00001364      -0.28563826       0.00000848      -0.00002303      -0.40478354      -0.19671369      -0.20921844       0.00000259       0.16774450       0.26476721      -0.00000327       0.60384886       0.35623080       0.00000292       0.57782630       0.22519915       0.00001200      -0.09406086      -0.03294611      -0.00000456      -0.00650655       0.00895070      -0.00000115       0.00000264      -0.00000174      -0.02891030      -0.01490400      -0.00968248      -0.00000381      -0.00001750      -0.00001322       0.00144163      -0.01658667      -0.00653431       0.00000042       0.11550566       0.34134069      -0.00001428      -0.00000065       0.00000129      -0.00120519      -0.00000607       0.00001240       0.00191578       0.02681777      -0.04941507       0.00000311       0.02596940      -0.05214566       0.00000450      -0.19482453       0.35551819      -0.00002604       0.22291874      -0.39554666       0.00002940      -0.31027083       0.55823993      -0.00004127       0.21747286      -0.39443643       0.00002913
H        1.87750317      -0.88839678       0.00009612       0.00000784      -0.00001563      -0.24023474       0.00001594      -0.00002628      -0.46365068       0.13404370       0.16680055      -0.00002494      -0.00000297       0.00001944       0.22671233       0.13163114      -0.25692585       0.00001765       0.26120454       0.13692367      -0.00000517      -0.00000457      -0.00001689      -0.12839147      -0.00000964       0.00001033       0.19526079       0.00001711      -0.00001739      -0.29244002      -0.28499698       0.05396827      -0.00002182      -0.14217064      -0.22123064       0.00000915       0.00002006      -0.00003705      -0.61807004       0.00398675      -0.11100080      -0.00001066      -0.00000379       0.00004175       0.61239598       0.29541506       0.14904564      -0.00004484       0.00000089      -0.00000079       0.02215083       0.00001379      -0.00002130      -0.36238215      -0.26130287      -0.34744879       0.00001759      -0.16359992      -0.21875292       0.00000853       0.48278358       0.30632025       0.00000288      -0.69820572      -0.29455875      -0.00001027       0.02592478      -0.00170746      -0.00000047       0.14231053       0.07013525      -0.00000169       0.00000177       0.00000092      -0.00802904      -0.04305025      -0.02800456      -0.00000805      -0.00005238      -0.00002959       0.00527918      -0.00992177      -0.02082881       0.00000470      -0.09364233      -0.31960744       0.00001265       0.00000102      -0.00000173       0.00073319      -0.00001375       0.00002477       0.00369220      -0.00147123       0.00050098      -0.00000003       0.05798142      -0.10653127       0.00000944       0.00263952       0.00228123       0.00000018      -0.29272474       0.53003730      -0.00004083       0.06111051      -0.10580323       0.00000794       0.37384828      -0.67477344       0.00005153
C        2.24745048       1.23676408       0.00000056       0.00000000       0.00000064      -0.00163317       0.00000376      -0.00000455      -0.03036321      -0.17854881       0.21668266      -0.00000111      -0.00000537       0.00002404       0.31873323       0.13163731      -0.25693466       0.00002510       0.25133789       0.13850348      -0.00000696      -0.00000009       0.00000014       0.25757433      -0.00000038       0.00000026       0.01732631      -0.00001027       0.00000881       0.15158778       0.13399870      -0.08703780       0.00001304      -0.19513550      -0.13125230      -0.00000206       0.00000013       0.00000124       0.01471269       0.11134166       0.06340881       0.00000288      -0.00000205       0.00000127      -0.03023449      -0.09497275       0.02562032      -0.00000832      -0.00000859       0.00000933       0.11557687       0.00000568      -0.00000408      -0.08465415       0.10623428       0.24745484      -0.00001057      -0.05345672       0.10850493      -0.00000744       0.04664189      -0.02488755       0.00000462       0.00622164       0.02293161      -0.00000181       0.01072908       0.02900301      -0.00000043       0.06860267       0.11099975       0.00000030       0.00000067      -0.00000013      -0.00200733      -0.02778977       0.00307268      -0.00007572      -0.00004478       0.00000457       0.06540240       0.05772947      -0.01541711       0.00001262      -0.05318765      -0.03068693      -0.00000054       0.00000055      -0.00000131      -0.00638645      -0.00000883       0.00002204       0.08727075      -0.00118803       0.00286338      -0.00000153       0.02733381      -0.05831576       0.00003092      -0.00000593      -0.00203408       0.00000061      -0.04197136       0.00514487       0.00000124      -0.04932291       0.00929947       0.00000061      -0.03079494       0.01285262      -0.00000109
C       -0.90573086      -1.23174715       0.00000698       0.00000014      -0.00000024      -0.00923303      -0.00000311       0.00000435       0.01633727       0.16758870      -0.22243930      -0.00000102      -0.00000401       0.00002213       0.24922850       0.13161823      -0.25690841       0.00002061       0.26227070       0.12463071      -0.00000594      -0.00000027      -0.00000116      -0.30214224      -0.00000018       0.00000057       0.01828406      -0.00000660       0.00001084       0.14867095       0.12293809      -0.09287306       0.00001257       0.19936508       0.12648929       0.00000007       0.00000171      -0.00000039      -0.01526793      -0.14599208      -0.05166386       0.00000016      -0.00000333      -0.00000220      -0.06812771      -0.05111669       0.04280996       0.00000149       0.00000110      -0.00000124      -0.07839776       0.00000358      -0.00000650      -0.09855629       0.11449488       0.15934526      -0.00000230       0.01352189      -0.16686128       0.00001043       0.05423512      -0.03820069       0.00000307      -0.00115186      -0.00966331      -0.00000001      -0.09094559      -0.10727753       0.00000456       0.02782329       0.02415416      -0.00000094       0.00000140       0.00000440       0.06661808       0.03954585      -0.04696205       0.00000071       0.00004190      -0.00004973       0.00082544       0.01353395      -0.02021955       0.00000051       0.05749175       0.03690425       0.00000028      -0.00001106       0.00000358       0.08720454      -0.00000070       0.00000033       0.00603910       0.06206633      -0.00382978       0.00001505       0.00325967      -0.00116040       0.00000110      -0.03474246       0.05627525      -0.00000170      -0.00989519       0.01287362      -0.00000069       0.01524023      -0.01978951       0.00000121      -0.01040151       0.01321791      -0.00000087
H       -0.23117032      -2.09122648       0.00002883       0.00000160      -0.00000146      -0.10083381      -0.00000212      -0.00000281      -0.31356864       0.29843930      -0.13695535      -0.00001907      -0.00000332       0.00002146       0.20189117       0.13161165      -0.25690993       0.00001646       0.26639292       0.12732349      -0.00000494      -0.00000156      -0.00000491      -0.42507244      -0.00000404      -0.00001339      -0.46092315      -0.00002245       0.00000669       0.40859597       0.38165451       0.07589547       0.00002524       0.43622519       0.27931690       0.00000177      -0.00001008      -0.00000438       0.12476939       0.32998317       0.24392942      -0.00000037       0.00001315       0.00001284       0.11444621       0.29543610       0.25465887      -0.00000927       0.00000138       0.00000446       0.15024402      -0.00001978      -0.00001408       0.17756247       0.18647989       0.20179481      -0.00001051      -0.43823424      -0.43602967       0.00000258      -0.07133306      -0.09829992       0.00000167       0.03023229       0.00699931       0.00000197       0.44795246       0.27634825      -0.00002255      -0.11353140      -0.07232474       0.00000564      -0.00001157      -0.00002387      -0.74144767       0.32463142       0.19171584       0.00000742       0.00034882       0.00020606      -0.01951584       0.12125078       0.07063811      -0.00000541      -0.12631981      -0.07943893      -0.00000047       0.00000335      -0.00001053       0.04451319       0.00000101      -0.00000196       0.00328012       0.00989503       0.02265317       0.00000683      -0.00872374       0.01488923       0.00000021       0.50696671      -0.75174654       0.00001735       0.10840449      -0.15660925       0.00000344      -0.16761756       0.24684595      -0.00000529       0.11204245      -0.17035354       0.00000360
H       -1.53506277      -1.22624927      -0.85737781      -0.02303303       0.07152781       0.00719866      -0.17624020       0.20376276       0.14522469       0.16774672      -0.31496176       0.00000388      -0.01064561       0.03879589       0.25697373       0.13161377      -0.25689506       0.00002285       0.26227039       0.12170681      -0.00000323       0.04469295       0.14787579      -0.33509333      -0.42645717       0.20307413       0.33428655      -0.05010974      -0.27979909       0.18619182       0.12571172      -0.28365084      -0.00125232       0.20358506      -0.05481926      -0.00326009      -0.11391921      -0.19771224       0.07280009      -0.09943192      -0.44381123      -0.02122794      -0.18587509      -0.25240040       0.08167167      -0.00992895      -0.21165675      -0.02157166      -0.21678520      -0.25634650       0.09842120      -0.26165188      -0.30269846       0.11691153       0.10882198       0.17522959      -0.00415539      -0.04893354       0.11637381       0.03914240       0.02408742       0.20143801       0.01576263       0.03370464       0.01723672      -0.02063229       0.27006357       0.44143258      -0.21934998      -0.07500125      -0.09233370       0.06274402       0.13435837      -0.44453674      -0.07975441      -0.45897194       0.20084171       0.33819019       0.00142173      -0.01437724      -0.00094910      -0.16866345       0.07736011       0.12385643       0.13781233       0.10042534      -0.08918954      -0.43233465       0.00950821      -0.55276834      -0.03076054       0.00063043      -0.03898911      -0.38855873       0.00429256      -0.58670372      -0.01635797      -0.00041000      -0.02564220      -0.04081060       0.02629916      -0.02925833       0.00242432       0.00559240       0.00975410      -0.00472067      -0.00866414      -0.01711482       0.00515842       0.00579635       0.01473797
H       -1.53505026      -1.22620420       0.85740289       0.02303333      -0.07152980       0.00720195       0.17623580      -0.20375123       0.14523305       0.16775775      -0.31498371       0.00000686       0.01063771      -0.03875260       0.25697559       0.13161624      -0.25690146       0.00002016       0.26226953       0.12170837      -0.00000912      -0.04469391      -0.14787921      -0.33508519       0.42646250      -0.20305744       0.33429239       0.05009640       0.27984955       0.18617676       0.12571635      -0.28361181       0.00129065       0.20359152      -0.05480302       0.00327455       0.11392194       0.19773921       0.07278798      -0.09942002      -0.44378820       0.02125639       0.18587247       0.25238663       0.08165780      -0.00994001      -0.21167137       0.02157788       0.21678893       0.25635938       0.09840513       0.26165500       0.30273459       0.11688920       0.10881152       0.17520910       0.00414245      -0.04896213       0.11634832      -0.03915919       0.02407891       0.20142718      -0.01577508       0.03370743       0.01724197       0.02063293       0.27006106       0.44145546       0.21932032      -0.07500127      -0.09234110      -0.06273761      -0.13435838       0.44451594      -0.07977585      -0.45897434       0.20079749      -0.33819282      -0.00240649       0.01480353      -0.00167504      -0.16866530       0.07735731      -0.12385835       0.13780618       0.10042463       0.08918131       0.43246890      -0.00953741      -0.55298764       0.03076896      -0.00063221      -0.03900329      -0.38839960       0.00431917       0.58651413      -0.01634650      -0.00040897       0.02562826      -0.04081412       0.02630081       0.02926249       0.00242078       0.00559217      -0.00975009      -0.00471291      -0.00866355       0.01710598       0.00515262       0.00579598      -0.01473134
H        3.27418256       0.99024066      -0.00001961       0.00001254       0.00000851       0.52323539      -0.00000131      -0.00000267      -0.29312695      -0.14041746       0.36786117      -0.00001593      -0.00000545       0.00002569       0.29507452       0.13163423      -0.25694127       0.00002271       0.25253904       0.14327359      -0.00000640       0.00000126       0.00000457       0.26872609       0.00000050      -0.00000174       0.08015377       0.00000201       0.00004431       0.31679203       0.05729032      -0.39284134       0.00003586      -0.13440191       0.11337077      -0.00001605      -0.00000813      -0.00001928      -0.13589931       0.19650356       0.43324237      -0.00002227      -0.00000249      -0.00001024       0.05742695      -0.21622722      -0.51975074       0.00002985      -0.00003262      -0.00006827      -0.22401015       0.00002018       0.00004138       0.15075487       0.06847284       0.06091775       0.00000206      -0.13669139      -0.29661843       0.00001328       0.09589148       0.20387949      -0.00001435      -0.02095973      -0.06029168       0.00000007      -0.03451666      -0.13223796      -0.00000083      -0.10735463      -0.48483310      -0.00001161       0.00000021      -0.00000214       0.02014265       0.02580358       0.13996196       0.00085952       0.00003440       0.00025671      -0.73842668      -0.08581795      -0.39884144      -0.00016021      -0.07508123      -0.18413483      -0.00000932      -0.00000292       0.00000033      -0.00355338       0.00003578      -0.00000056       0.04759343       0.00227532       0.00049372      -0.00000092      -0.07167183      -0.00305770       0.00001821       0.01060288      -0.00387384       0.00000010       0.58732173      -0.16094955      -0.00001235       0.66308685      -0.18107917      -0.00001412       0.36928893      -0.09932017      -0.00000834
H        2.00242189       1.82195781       0.87795058      -0.38970035       0.25548151      -0.27186601       0.16878549      -0.20007444       0.14737525      -0.26629060       0.18782582       0.00001765       0.01003065      -0.03842018       0.34776801       0.13164083      -0.25692932       0.00002430       0.24855840       0.13758884      -0.00000610      -0.04637114      -0.14681771       0.34910521      -0.03932354       0.04548490      -0.02283457      -0.18613037      -0.19998300       0.24855723       0.31144170      -0.02932479       0.00065966      -0.33926892      -0.17215769      -0.00278925       0.14557211       0.17632194      -0.08047580      -0.12362475       0.00766069      -0.01350626      -0.06791210      -0.10147841       0.03297983       0.29101812       0.10162906       0.02731278       0.26701291       0.43337716      -0.14913693      -0.18076232      -0.30311621       0.10009753       0.29150040       0.25676395       0.01768002       0.27848046       0.14252928       0.03831266      -0.04590182       0.01001423      -0.03648165      -0.07086406      -0.04583906       0.02636839      -0.06835442      -0.10721110       0.06331540      -0.31662067      -0.41684712       0.23119345       0.01286135       0.00026374       0.00192454       0.13484118      -0.12842087       0.12170728      -0.46673629      -0.02279946      -0.07835063      -0.34318058       0.35780977      -0.32982506      -0.00419509       0.00137315       0.00449090      -0.01096643       0.02813717       0.03912881       0.14811459      -0.40570971      -0.55351962       0.00622564      -0.01742444      -0.02774605      -0.12568961       0.36306227       0.58069742      -0.00536172       0.01510332       0.02354325      -0.03514514       0.04493377       0.06170832      -0.03280182       0.03735052       0.04406343      -0.00323700      -0.02603458      -0.05164446
H        2.00237197       1.82194896      -0.87794464       0.38968091      -0.25548062      -0.27188155      -0.16877265       0.20006499       0.14738236      -0.26630908       0.18784216       0.00000009      -0.01004206       0.03846769       0.34776830       0.13163845      -0.25692296       0.00003087       0.24855897       0.13758713      -0.00000900       0.04636979       0.14681648       0.34910221       0.03932320      -0.04548397      -0.02283639       0.18607150       0.19998772       0.24854762       0.31148368      -0.02928780      -0.00062642      -0.33929479      -0.17218735       0.00277792      -0.14554871      -0.17630905      -0.08046630      -0.12366058       0.00761153       0.01349535       0.06792893       0.10147921       0.03297125       0.29107512       0.10171594      -0.02729764      -0.26693168      -0.43333772      -0.14912870       0.18071953       0.30309916       0.10009264       0.29153333       0.25682087      -0.01767720       0.27851221       0.14258290      -0.03831135      -0.04590944       0.00998680       0.03647474      -0.07086289      -0.04583262      -0.02636404      -0.06835308      -0.10721018      -0.06331219      -0.31661478      -0.41685389      -0.23118277      -0.01286713      -0.00026026       0.00192916       0.13374851      -0.12847331      -0.12152973       0.46720310       0.02235771      -0.07879047      -0.34295751       0.35782489       0.32980630      -0.00416307       0.00139010      -0.00448520       0.01096288      -0.02812162       0.03910378      -0.14804792       0.40543586      -0.55308054       0.00623228      -0.01743821       0.02776503      -0.12582386       0.36335062      -0.58109120      -0.00536490       0.01510911      -0.02355097      -0.03514875       0.04493546      -0.06171018      -0.03280208       0.03734692      -0.04405734      -0.00322888      -0.02604925       0.05166509
12
Properties=species:S:1:pos:R:3:xtb2_normal_mode_displacements_0:R:3:xtb2_normal_mode_displacements_1:R:3:xtb2_normal_mode_displacements_2:R:3:xtb2_normal_mode_displacements_3:R:3:xtb2_normal_mode_displacements_4:R:3:xtb2_normal_mode_displacements_5:R:3:xtb2_normal_mode_displacements_6:R:3:xtb2_normal_mode_displacements_7:R:3:xtb2_normal_mode_displacements_8:R:3:xtb2_normal_mode_displacements_9:R:3:xtb2_normal_mode_displacements_10:R:3:xtb2_normal_mode_displacements_11:R:3:xtb2_normal_mode_displacements_12:R:3:xtb2_normal_mode_displacements_13:R:3:xtb2_normal_mode_displacements_14:R:3:xtb2_normal_mode_displacements_15:R:3:xtb2_normal_mode_displacements_16:R:3:xtb2_normal_mode_displacements_17:R:3:xtb2_normal_mode_displacements_18:R:3:xtb2_normal_mode_displacements_19:R:3:xtb2_normal_mode_displacements_20:R:3:xtb2_normal_mode_displacements_21:R:3:xtb2_normal_mode_displacements_22:R:3:xtb2_normal_mode_displacements_23:R:3:xtb2_normal_mode_displacements_24:R:3:xtb2_normal_mode_displacements_25:R:3:xtb2_normal_mode_displacements_26:R:3:xtb2_normal_mode_displacements_27:R:3:xtb2_normal_mode_displacements_28:R:3:xtb2_normal_mode_displacements_29:R:3:xtb2_normal_mode_displacements_30:R:3:xtb2_normal_mode_displacements_31:R:3:xtb2_normal_mode_displacements_32:R:3:xtb2_normal_mode_displacements_33:R:3:xtb2_normal_mode_displacements_34:R:3:xtb2_normal_mode_displacements_35:R:3 butene=T reference=T _ConfigSet_loc=" / 0 / 0" xtb2_normal_mode_frequencies="-0.020805350599677645 -0.0012520287572930428 -0.0008057157555249398 -4.5646307594914854e-05 -1.544271636343004e-06 2.0070667760733657e-05 0.0007792852814774499 0.020007895212821186 0.030827178750387946 0.03379472539721994 0.06147046924481604 0.08694186489268312 0.11505838067939451 0.12427408663486034 0.12511644226890012 0.12691071213329774 0.13044988333222152 0.1391633835201524 0.14195157959406351 0.15814728268344924 0.161403301474211 0.17400433576408564 0.17465713361699353 0.18358617565523236 0.18451272219423798 0.18453214420220326 0.18474813708238022 0.21569178023426594 0.3710653957286146 0.37201378110443734 0.3729909202179395 0.3734662167474916 0.37645626122957077 0.3776743594254655 0.3781192902563234 0.379676400084026" pbc="F F F"
C        0.63276255       0.09165046      -0.00000803      -0.00000219       0.00000336       0.06748807      -0.00000559       0.00000916       0.12212985      -0.00614295      -0.09692342       0.00000606      -0.00000501       0.00002407       0.29206110       0.13163050      -0.25691768       0.00002379       0.25677989       0.12859307      -0.00000667       0.00000163       0.00000451      -0.05405953       0.00000299      -0.00000375      -0.09743338       0.00001026      -0.00001152      -0.17628007      -0.15989949       0.12211245      -0.00001533       0.01200567       0.17692842      -0.00000709       0.00000474      -0.00000819      -0.14139153      -0.03346491       0.08690673      -0.00000724       0.00000078      -0.00000096      -0.00122224       0.02641785      -0.04570419       0.00000106      -0.00000306       0.00000180       0.09531005      -0.00000429       0.00000765       0.10139995      -0.13752430      -0.17267510       0.00000252       0.02319795       0.20679016      -0.00001116      -0.08855670      -0.02362058      -0.00000150       0.03987610      -0.08167344       0.00000626       0.00648479       0.02268491      -0.00000070      -0.01422627       0.00480927      -0.00000080      -0.00000038      -0.00000073       0.01148138      -0.00519387      -0.00462566       0.00000003      -0.00000407      -0.00000610      -0.00033160       0.00415898       0.00502256      -0.00000046      -0.55546241      -0.07424367      -0.00001728      -0.00000071      -0.00000031       0.00179280      -0.00000007      -0.00000116      -0.00012193       0.00139831       0.00495002       0.00000006      -0.00092282       0.00483815      -0.00000038       0.01637363      -0.02591311       0.00000203      -0.02077876       0.02980516      -0.00000235       0.02835169      -0.04467337       0.00000347      -0.01735652       0.03406534      -0.00000244
C        0.73658244      -0.09422462       0.00000574       0.00000248      -0.00000404      -0.04758114       0.00000487      -0.00000777      -0.14330379      -0.00260990       0.09284680      -0.00000763      -0.00000435       0.00002238       0.27498941       0.13163092      -0.25692797       0.00002184       0.25689140       0.13459017      -0.00000618      -0.00000103      -0.00000460       0.00726094      -0.00000254       0.00000268       0.04453399       0.00001204      -0.00001492      -0.22198727      -0.15883473       0.12881301      -0.00001835      -0.01985896      -0.16863397       0.00000972      -0.00000683       0.00000684       0.14939235       0.04389036      -0.09101025       0.00000701       0.00000317      -0.00000415      -0.03581761       0.01362209      -0.00488053       0.00000802       0.00000432      -0.00000772      -0.09567610      -0.00000354       0.00000275       0.08222047      -0.13336065      -0.28197104       0.00001021       0.02611065      -0.13426829       0.00000769      -0.10191264      -0.01324020      -0.00000399      -0.02938487       0.08349719      -0.00000518       0.01089938      -0.00969461       0.00000117      -0.00933056      -0.01438009       0.00000074      -0.00000062       0.00000017       0.00060586       0.02338722       0.01169582      -0.00001147       0.00002412       0.00001731       0.01055505       0.00971860      -0.01258606       0.00000254       0.54379582       0.07123561       0.00001871       0.00000018       0.00000008       0.00022403       0.00000188      -0.00000098       0.00148631      -0.00126622       0.00038203      -0.00000002      -0.00611694       0.00606801      -0.00000014      -0.00118201      -0.00189184       0.00000006       0.02560914      -0.04094076       0.00000331      -0.00864247       0.00685988      -0.00000064      -0.03178962       0.05562476      -0.00000426
H       -0.54039507       0.84980218      -0.00009219      -0.00000799       0.00001294       0.24073037      -0.00001597       0.00002701       0.44309473      -0.14260435      -0.17165367       0.00002342      -0.00000633       0.00002689       0.34029384       0.13164507      -0.25690780       0.00002798       0.25246350       0.12622903      -0.00000768       0.00000521       0.00001637       0.08091855       0.00000958      -0.00001007      -0.23001709       0.00001094      -0.00000788      -0.13405564      -0.29191125       0.04257858      -0.00001480       0.15496007       0.24046056      -0.00000564      -0.00002502       0.00002685       0.55583124       0.20434738       0.21511290      -0.00001770      -0.00000401       0.00004071       0.59991421       0.32683170       0.12343428      -0.00002387       0.00001952      -0.00001364      -0.28563826       0.00000848      -0.00002303      -0.40478354      -0.19671369      -0.20921844       0.00000259       0.16774450       0.26476721      -0.00000327       0.60384886       0.35623080       0.00000292       0.57782630       0.22519915       0.00001200      -0.09406086      -0.03294611      -0.00000456      -0.00650655       0.00895070      -0.00000115       0.00000264      -0.00000174      -0.02891030      -0.01490400      -0.00968248      -0.00000381      -0.00001750      -0.00001322       0.00144163      -0.01658667      -0.00653431       0.00000042       0.11550566       0.34134069      -0.00001428      -0.00000065       0.00000129      -0.00120519      -0.00000607       0.00001240       0.00191578       0.02681777      -0.04941507       0.00000311       0.02596940      -0.05214566       0.00000450      -0.19482453       0.35551819      -0.00002604       0.22291874      -0.39554666       0.00002940      -0.31027083       0.55823993      -0.00004127       0.21747286      -0.39443643       0.00002913
H        1.88455882      -0.86431536       0.00009517       0.00000784      -0.00001563      -0.24023474       0.00001594      -0.00002628      -0.46365068       0.13404370       0.16680055      -0.00002494      -0.00000297       0.00001944       0.22671233       0.13163114      -0.25692585       0.00001765       0.26120454       0.13692367      -0.00000517      -0.00000457      -0.00001689      -0.12839147      -0.00000964       0.00001033       0.19526079       0.00001711      -0.00001739      -0.29244002      -0.28499698       0.05396827      -0.00002182      -0.14217064      -0.22123064       0.00000915       0.00002006      -0.00003705      -0.61807004       0.00398675      -0.11100080      -0.00001066      -0.00000379       0.00004175       0.61239598       0.29541506       0.14904564      -0.00004484       0.00000089      -0.00000079       0.02215083       0.00001379      -0.00002130      -0.36238215      -0.26130287      -0.34744879       0.00001759      -0.16359992      -0.21875292       0.00000853       0.48278358       0.30632025       0.00000288      -0.69820572      -0.29455875      -0.00001027       0.02592478      -0.00170746      -0.00000047       0.14231053       0.07013525      -0.00000169       0.00000177       0.00000092      -0.00802904      -0.04305025      -0.02800456      -0.00000805      -0.00005238      -0.00002959       0.00527918      -0.00992177      -0.02082881       0.00000470      -0.09364233      -0.31960744       0.00001265       0.00000102      -0.00000173       0.00073319      -0.00001375       0.00002477       0.00369220      -0.00147123       0.00050098      -0.00000003       0.05798142      -0.10653127       0.00000944       0.00263952       0.00228123       0.00000018      -0.29272474       0.53003730      -0.00004083       0.06111051      -0.10580323       0.00000794       0.37384828      -0.67477344       0.00005153
C        2.26128408       1.24474546       0.00000070       0.00000000       0.00000064      -0.00163317       0.00000376      -0.00000455      -0.03036321      -0.17854881       0.21668266      -0.00000111      -0.00000537       0.00002404       0.31873323       0.13163731      -0.25693466       0.00002510       0.25133789       0.13850348      -0.00000696      -0.00000009       0.00000014       0.25757433      -0.00000038       0.00000026       0.01732631      -0.00001027       0.00000881       0.15158778       0.13399870      -0.08703780       0.00001304      -0.19513550      -0.13125230      -0.00000206       0.00000013       0.00000124       0.01471269       0.11134166       0.06340881       0.00000288      -0.00000205       0.00000127      -0.03023449      -0.09497275       0.02562032      -0.00000832      -0.00000859       0.00000933       0.11557687       0.00000568      -0.00000408      -0.08465415       0.10623428       0.24745484      -0.00001057      -0.05345672       0.10850493      -0.00000744       0.04664189      -0.02488755       0.00000462       0.00622164       0.02293161      -0.00000181       0.01072908       0.02900301      -0.00000043       0.06860267       0.11099975       0.00000030       0.00000067      -0.00000013      -0.00200733      -0.02778977       0.00307268      -0.00007572      -0.00004478       0.00000457       0.06540240       0.05772947      -0.01541711       0.00001262      -0.05318765      -0.03068693      -0.00000054       0.00000055      -0.00000131      -0.00638645      -0.00000883       0.00002204       0.08727075      -0.00118803       0.00286338      -0.00000153       0.02733381      -0.05831576       0.00003092      -0.00000593      -0.00203408       0.00000061      -0.04197136       0.00514487       0.00000124      -0.04932291       0.00929947       0.00000061      -0.03079494       0.01285262      -0.00000109
C       -0.92068392      -1.24134560       0.00000691       0.00000014      -0.00000024      -0.00923303      -0.00000311       0.00000435       0.01633727       0.16758870      -0.22243930      -0.00000102      -0.00000401       0.00002213       0.24922850       0.13161823      -0.25690841       0.00002061       0.26227070       0.12463071      -0.00000594      -0.00000027      -0.00000116      -0.30214224      -0.00000018       0.00000057       0.01828406      -0.00000660       0.00001084       0.14867095       0.12293809      -0.09287306       0.00001257       0.19936508       0.12648929       0.00000007       0.00000171      -0.00000039      -0.01526793      -0.14599208      -0.05166386       0.00000016      -0.00000333      -0.00000220      -0.06812771      -0.05111669       0.04280996       0.00000149       0.00000110      -0.00000124      -0.07839776       0.00000358      -0.00000650      -0.09855629       0.11449488       0.15934526      -0.00000230       0.01352189      -0.16686128       0.00001043       0.05423512      -0.03820069       0.00000307      -0.00115186      -0.00966331      -0.00000001      -0.09094559      -0.10727753       0.00000456       0.02782329       0.02415416      -0.00000094       0.00000140       0.00000440       0.06661808       0.03954585      -0.04696205       0.00000071       0.00004190      -0.00004973       0.00082544       0.01353395      -0.02021955       0.00000051       0.05749175       0.03690425       0.00000028      -0.00001106       0.00000358       0.08720454      -0.00000070       0.00000033       0.00603910       0.06206633      -0.00382978       0.00001505       0.00325967      -0.00116040       0.00000110      -0.03474246       0.05627525      -0.00000170      -0.00989519       0.01287362      -0.00000069       0.01524023      -0.01978951       0.00000121      -0.01040151       0.01321791      -0.00000087
H       -0.22165252      -2.08524100       0.00002886       0.00000160      -0.00000146      -0.10083381      -0.00000212      -0.00000281      -0.31356864       0.29843930      -0.13695535      -0.00001907      -0.00000332       0.00002146       0.20189117       0.13161165      -0.25690993       0.00001646       0.26639292       0.12732349      -0.00000494      -0.00000156      -0.00000491      -0.42507244      -0.00000404      -0.00001339      -0.46092315      -0.00002245       0.00000669       0.40859597       0.38165451       0.07589547       0.00002524       0.43622519       0.27931690       0.00000177      -0.00001008      -0.00000438       0.12476939       0.32998317       0.24392942      -0.00000037       0.00001315       0.00001284       0.11444621       0.29543610       0.25465887      -0.00000927       0.00000138       0.00000446       0.15024402      -0.00001978      -0.00001408       0.17756247       0.18647989       0.20179481      -0.00001051      -0.43823424      -0.43602967       0.00000258      -0.07133306      -0.09829992       0.00000167       0.03023229       0.00699931       0.00000197       0.44795246       0.27634825      -0.00002255      -0.11353140      -0.07232474       0.00000564      -0.00001157      -0.00002387      -0.74144767       0.32463142       0.19171584       0.00000742       0.00034882       0.00020606      -0.01951584       0.12125078       0.07063811      -0.00000541      -0.12631981      -0.07943893      -0.00000047       0.00000335      -0.00001053       0.04451319       0.00000101      -0.00000196       0.00328012       0.00989503       0.02265317       0.00000683      -0.00872374       0.01488923       0.00000021       0.50696671      -0.75174654       0.00001735       0.10840449      -0.15660925       0.00000344      -0.16761756       0.24684595      -0.00000529       0.11204245      -0.17035354       0.00000360
H       -1.54544650      -1.23381600      -0.85065766      -0.02303303       0.07152781       0.00719866      -0.17624020       0.20376276       0.14522469       0.16774672      -0.31496176       0.00000388      -0.01064561       0.03879589       0.25697373       0.13161377      -0.25689506       0.00002285       0.26227039       0.12170681      -0.00000323       0.04469295       0.14787579      -0.33509333      -0.42645717       0.20307413       0.33428655      -0.05010974      -0.27979909       0.18619182       0.12571172      -0.28365084      -0.00125232       0.20358506      -0.05481926      -0.00326009      -0.11391921      -0.19771224       0.07280009      -0.09943192      -0.44381123      -0.02122794      -0.18587509      -0.25240040       0.08167167      -0.00992895      -0.21165675      -0.02157166      -0.21678520      -0.25634650       0.09842120      -0.26165188      -0.30269846       0.11691153       0.10882198       0.17522959      -0.00415539      -0.04893354       0.11637381       0.03914240       0.02408742       0.20143801       0.01576263       0.03370464       0.01723672      -0.02063229       0.27006357       0.44143258      -0.21934998      -0.07500125      -0.09233370       0.06274402       0.13435837      -0.44453674      -0.07975441      -0.45897194       0.20084171       0.33819019       0.00142173      -0.01437724      -0.00094910      -0.16866345       0.07736011       0.12385643       0.13781233       0.10042534      -0.08918954      -0.43233465       0.00950821      -0.55276834      -0.03076054       0.00063043      -0.03898911      -0.38855873       0.00429256      -0.58670372      -0.01635797      -0.00041000      -0.02564220      -0.04081060       0.02629916      -0.02925833       0.00242432       0.00559240       0.00975410      -0.00472067      -0.00866414      -0.01711482       0.00515842       0.00579635       0.01473797
H       -1.54543352      -1.23377089       0.85068336       0.02303333      -0.07152980       0.00720195       0.17623580      -0.20375123       0.14523305       0.16775775      -0.31498371       0.00000686       0.01063771      -0.03875260       0.25697559       0.13161624      -0.25690146       0.00002016       0.26226953       0.12170837      -0.00000912      -0.04469391      -0.14787921      -0.33508519       0.42646250      -0.20305744       0.33429239       0.05009640       0.27984955       0.18617676       0.12571635      -0.28361181       0.00129065       0.20359152      -0.05480302       0.00327455       0.11392194       0.19773921       0.07278798      -0.09942002      -0.44378820       0.02125639       0.18587247       0.25238663       0.08165780      -0.00994001      -0.21167137       0.02157788       0.21678893       0.25635938       0.09840513       0.26165500       0.30273459       0.11688920       0.10881152       0.17520910       0.00414245      -0.04896213       0.11634832      -0.03915919       0.02407891       0.20142718      -0.01577508       0.03370743       0.01724197       0.02063293       0.27006106       0.44145546       0.21932032      -0.07500127      -0.09234110      -0.06273761      -0.13435838       0.44451594      -0.07977585      -0.45897434       0.20079749      -0.33819282      -0.00240649       0.01480353      -0.00167504      -0.16866530       0.07735731      -0.12385835       0.13780618       0.10042463       0.08918131       0.43246890      -0.00953741      -0.55298764       0.03076896      -0.00063221      -0.03900329      -0.38839960       0.00431917       0.58651413      -0.01634650      -0.00040897       0.02562826      -0.04081412       0.02630081       0.02926249       0.00242078       0.00559217      -0.00975009      -0.00471291      -0.00866355       0.01710598       0.00515262       0.00579598      -0.01473134
H        3.27983969       1.00411464      -0.00001891       0.00001254       0.00000851       0.52323539      -0.00000131      -0.00000267      -0.29312695      -0.14041746       0.36786117      -0.00001593      -0.00000545       0.00002569       0.29507452       0.13163423      -0.25694127       0.00002271       0.25253904       0.14327359      -0.00000640       0.00000126       0.00000457       0.26872609       0.00000050      -0.00000174       0.08015377       0.00000201       0.00004431       0.31679203       0.05729032      -0.39284134       0.00003586      -0.13440191       0.11337077      -0.00001605      -0.00000813      -0.00001928      -0.13589931       0.19650356       0.43324237      -0.00002227      -0.00000249      -0.00001024       0.05742695      -0.21622722      -0.51975074       0.00002985      -0.00003262      -0.00006827      -0.22401015       0.00002018       0.00004138       0.15075487       0.06847284       0.06091775       0.00000206      -0.13669139      -0.29661843       0.00001328       0.09589148       0.20387949      -0.00001435      -0.02095973      -0.06029168       0.00000007      -0.03451666      -0.13223796      -0.00000083      -0.10735463      -0.48483310      -0.00001161       0.00000021      -0.00000214       0.02014265       0.02580358       0.13996196       0.00085952       0.00003440       0.00025671      -0.73842668      -0.08581795      -0.39884144      -0.00016021      -0.07508123      -0.18413483      -0.00000932      -0.00000292       0.00000033      -0.00355338       0.00003578      -0.00000056       0.04759343       0.00227532       0.00049372      -0.00000092      -0.07167183      -0.00305770       0.00001821       0.01060288      -0.00387384       0.00000010       0.58732173      -0.16094955      -0.00001235       0.66308685      -0.18107917      -0.00001412       0.36928893      -0.09932017      -0.00000834
H        2.00273797       1.82185435       0.87761220      -0.38970035       0.25548151      -0.27186601       0.16878549      -0.20007444       0.14737525      -0.26629060       0.18782582       0.00001765       0.01003065      -0.03842018       0.34776801       0.13164083      -0.25692932       0.00002430       0.24855840       0.13758884      -0.00000610      -0.04637114      -0.14681771       0.34910521      -0.03932354       0.04548490      -0.02283457      -0.18613037      -0.19998300       0.24855723       0.31144170      -0.02932479       0.00065966      -0.33926892      -0.17215769      -0.00278925       0.14557211       0.17632194      -0.08047580      -0.12362475       0.00766069      -0.01350626      -0.06791210      -0.10147841       0.03297983       0.29101812       0.10162906       0.02731278       0.26701291       0.43337716      -0.14913693      -0.18076232      -0.30311621       0.10009753       0.29150040       0.25676395       0.01768002       0.27848046       0.14252928       0.03831266      -0.04590182       0.01001423      -0.03648165      -0.07086406      -0.04583906       0.02636839      -0.06835442      -0.10721110       0.06331540      -0.31662067      -0.41684712       0.23119345       0.01286135       0.00026374       0.00192454       0.13484118      -0.12842087       0.12170728      -0.46673629      -0.02279946      -0.07835063      -0.34318058       0.35780977      -0.32982506      -0.00419509       0.00137315       0.00449090      -0.01096643       0.02813717       0.03912881       0.14811459      -0.40570971      -0.55351962       0.00622564      -0.01742444      -0.02774605      -0.12568961       0.36306227       0.58069742      -0.00536172       0.01510332       0.02354325      -0.03514514       0.04493377       0.06170832      -0.03280182       0.03735052       0.04406343      -0.00323700      -0.02603458      -0.05164446
H        2.00268564       1.82184422      -0.87760669       0.38968091      -0.25548062      -0.27188155      -0.16877265       0.20006499       0.14738236      -0.26630908       0.18784216       0.00000009      -0.01004206       0.03846769       0.34776830       0.13163845      -0.25692296       0.00003087       0.24855897       0.13758713      -0.00000900       0.04636979       0.14681648       0.34910221       0.03932320      -0.04548397      -0.02283639       0.18607150       0.19998772       0.24854762       0.31148368      -0.02928780      -0.00062642      -0.33929479      -0.17218735       0.00277792      -0.14554871      -0.17630905      -0.08046630      -0.12366058       0.00761153       0.01349535       0.06792893       0.10147921       0.03297125       0.29107512       0.10171594      -0.02729764      -0.26693168      -0.43333772      -0.14912870       0.18071953       0.30309916       0.10009264       0.29153333       0.25682087      -0.01767720       0.27851221       0.14258290      -0.03831135      -0.04590944       0.00998680       0.03647474      -0.07086289      -0.04583262      -0.02636404      -0.06835308      -0.10721018      -0.06331219      -0.31661478      -0.41685389      -0.23118277      -0.01286713      -0.00026026       0.00192916       0.13374851      -0.12847331      -0.12152973       0.46720310       0.02235771      -0.07879047      -0.34295751       0.35782489       0.32980630      -0.00416307       0.00139010      -0.00448520       0.01096288      -0.02812162       0.03910378      -0.14804792       0.40543586      -0.55308054       0.00623228      -0.01743821       0.02776503      -0.12582386       0.36335062      -0.58109120      -0.00536490       0.01510911      -0.02355097      -0.03514875       0.04493546      -0.06171018      -0.03280208       0.03734692      -0.04405734      -0.00322888      -0.02604925       0.05166509
12
Properties=species:S:1:pos:R:3:xtb2_normal_mode_displacements_0:R:3:xtb2_normal_mode_displacements_1:R:3:xtb2_normal_mode_displacements_2:R:3:xtb2_normal_mode_displacements_3:R:3:xtb2_normal_mode_displacements_4:R:3:xtb2_normal_mode_displacements_5:R:3:xtb2_normal_mode_displacements_6:R:3:xtb2_normal_mode_displacements_7:R:3:xtb2_normal_mode_displacements_8:R:3:xtb2_normal_mode_displacements_9:R:3:xtb2_normal_mode_displacements_10:R:3:xtb2_normal_mode_displacements_11:R:3:xtb2_normal_mode_displacements_12:R:3:xtb2_normal_mode_displacements_13:R:3:xtb2_normal_mode_displacements_14:R:3:xtb2_normal_mode_displacements_15:R:3:xtb2_normal_mode_displacements_16:R:3:xtb2_normal_mode_displacements_17:R:3:xtb2_normal_mode_displacements_18:R:3:xtb2_normal_mode_displacements_19:R:3:xtb2_normal_mode_displacements_20:R:3:xtb2_normal_mode_displacements_21:R:3:xtb2_normal_mode_displacements_22:R:3:xtb2_normal_mode_displacements_23:R:3:xtb2_normal_mode_displacements_24:R:3:xtb2_normal_mode_displacements_25:R:3:xtb2_normal_mode_displacements_26:R:3:xtb2_normal_mode_displacements_27:R:3:xtb2_normal_mode_displacements_28:R:3:xtb2_normal_mode_displacements_29:R:3:xtb2_normal_mode_displacements_30:R:3:xtb2_normal_mode_displacements_31:R:3:xtb2_normal_mode_displacements_32:R:3:xtb2_normal_mode_displacements_33:R:3:xtb2_normal_mode_displacements_34:R:3:xtb2_normal_mode_displacements_35:R:3 butene=T reference=T _ConfigSet_loc=" / 0 / 0" xtb2_normal_mode_frequencies="-0.020805350599677645 -0.0012520287572930428 -0.0008057157555249398 -4.5646307594914854e-05 -1.544271636343004e-06 2.0070667760733657e-05 0.0007792852814774499 0.020007895212821186 0.030827178750387946 0.03379472539721994 0.06147046924481604 0.08694186489268312 0.11505838067939451 0.12427408663486034 0.12511644226890012 0.12691071213329774 0.13044988333222152 0.1391633835201524 0.14195157959406351 0.15814728268344924 0.161403301474211 0.17400433576408564 0.17465713361699353 0.18358617565523236 0.18451272219423798 0.18453214420220326 0.18474813708238022 0.21569178023426594 0.3710653957286146 0.37201378110443734 0.3729909202179395 0.3734662167474916 0.37645626122957077 0.3776743594254655 0.3781192902563234 0.379676400084026" pbc="F F F"
C        0.68349384       0.09843126      -0.00000645      -0.00000219       0.00000336       0.06748807      -0.00000559       0.00000916       0.12212985      -0.00614295      -0.09692342       0.00000606      -0.00000501       0.00002407       0.29206110       0.13163050      -0.25691768       0.00002379       0.25677989       0.12859307      -0.00000667       0.00000163       0.00000451      -0.05405953       0.00000299      -0.00000375      -0.09743338       0.00001026      -0.00001152      -0.17628007      -0.15989949       0.12211245      -0.00001533       0.01200567       0.17692842      -0.00000709       0.00000474      -0.00000819      -0.14139153      -0.03346491       0.08690673      -0.00000724       0.00000078      -0.00000096      -0.00122224       0.02641785      -0.04570419       0.00000106      -0.00000306       0.00000180       0.09531005      -0.00000429       0.00000765       0.10139995      -0.13752430      -0.17267510       0.00000252       0.02319795       0.20679016      -0.00001116      -0.08855670      -0.02362058      -0.00000150       0.03987610      -0.08167344       0.00000626       0.00648479       0.02268491      -0.00000070      -0.01422627       0.00480927      -0.00000080      -0.00000038      -0.00000073       0.01148138      -0.00519387      -0.00462566       0.00000003      -0.00000407      -0.00000610      -0.00033160       0.00415898       0.00502256      -0.00000046      -0.55546241      -0.07424367      -0.00001728      -0.00000071      -0.00000031       0.00179280      -0.00000007      -0.00000116      -0.00012193       0.00139831       0.00495002       0.00000006      -0.00092282       0.00483815      -0.00000038       0.01637363      -0.02591311       0.00000203      -0.02077876       0.02980516      -0.00000235       0.02835169      -0.04467337       0.00000347      -0.01735652       0.03406534      -0.00000244
C        0.68691668      -0.10073069       0.00000403       0.00000248      -0.00000404      -0.04758114       0.00000487      -0.00000777      -0.14330379      -0.00260990       0.09284680      -0.00000763      -0.00000435       0.00002238       0.27498941       0.13163092      -0.25692797       0.00002184       0.25689140       0.13459017      -0.00000618      -0.00000103      -0.00000460       0.00726094      -0.00000254       0.00000268       0.04453399       0.00001204      -0.00001492      -0.22198727      -0.15883473       0.12881301      -0.00001835      -0.01985896      -0.16863397       0.00000972      -0.00000683       0.00000684       0.14939235       0.04389036      -0.09101025       0.00000701       0.00000317      -0.00000415      -0.03581761       0.01362209      -0.00488053       0.00000802       0.00000432      -0.00000772      -0.09567610      -0.00000354       0.00000275       0.08222047      -0.13336065      -0.28197104       0.00001021       0.02611065      -0.13426829       0.00000769      -0.10191264      -0.01324020      -0.00000399      -0.02938487       0.08349719      -0.00000518       0.01089938      -0.00969461       0.00000117      -0.00933056      -0.01438009       0.00000074      -0.00000062       0.00000017       0.00060586       0.02338722       0.01169582      -0.00001147       0.00002412       0.00001731       0.01055505       0.00971860      -0.01258606       0.00000254       0.54379582       0.07123561       0.00001871       0.00000018       0.00000008       0.00022403       0.00000188      -0.00000098       0.00148631      -0.00126622       0.00038203      -0.00000002      -0.00611694       0.00606801      -0.00000014      -0.00118201      -0.00189184       0.00000006       0.02560914      -0.04094076       0.00000331      -0.00864247       0.00685988      -0.00000064      -0.03178962       0.05562476      -0.00000426
H       -0.54345115       0.84077089      -0.00009182      -0.00000799       0.00001294       0.24073037      -0.00001597       0.00002701       0.44309473      -0.14260435      -0.17165367       0.00002342      -0.00000633       0.00002689       0.34029384       0.13164507      -0.25690780       0.00002798       0.25246350       0.12622903      -0.00000768       0.00000521       0.00001637       0.08091855       0.00000958      -0.00001007      -0.23001709       0.00001094      -0.00000788      -0.13405564      -0.29191125       0.04257858      -0.00001480       0.15496007       0.24046056      -0.00000564      -0.00002502       0.00002685       0.55583124       0.20434738       0.21511290      -0.00001770      -0.00000401       0.00004071       0.59991421       0.32683170       0.12343428      -0.00002387       0.00001952      -0.00001364      -0.28563826       0.00000848      -0.00002303      -0.40478354      -0.19671369      -0.20921844       0.00000259       0.16774450       0.26476721      -0.00000327       0.60384886       0.35623080       0.00000292       0.57782630       0.22519915       0.00001200      -0.09406086      -0.03294611      -0.00000456      -0.00650655       0.00895070      -0.00000115       0.00000264      -0.00000174      -0.02891030      -0.01490400      -0.00968248      -0.00000381      -0.00001750      -0.00001322       0.00144163      -0.01658667      -0.00653431       0.00000042       0.11550566       0.34134069      -0.00001428      -0.00000065       0.00000129      -0.00120519      -0.00000607       0.00001240       0.00191578       0.02681777      -0.04941507       0.00000311       0.02596940      -0.05214566       0.00000450      -0.19482453       0.35551819      -0.00002604       0.22291874      -0.39554666       0.00002940      -0.31027083       0.55823993      -0.00004127       0.21747286      -0.39443643       0.00002913
H        1.88703644      -0.85585909       0.00009483       0.00000784      -0.00001563      -0.24023474       0.00001594      -0.00002628      -0.46365068       0.13404370       0.16680055      -0.00002494      -0.00000297       0.00001944       0.22671233       0.13163114      -0.25692585       0.00001765       0.26120454       0.13692367      -0.00000517      -0.00000457      -0.00001689      -0.12839147      -0.00000964       0.00001033       0.19526079       0.00001711      -0.00001739      -0.29244002      -0.28499698       0.05396827      -0.00002182      -0.14217064      -0.22123064       0.00000915       0.00002006      -0.00003705      -0.61807004       0.00398675      -0.11100080      -0.00001066      -0.00000379       0.00004175       0.61239598       0.29541506       0.14904564      -0.00004484       0.00000089      -0.00000079       0.02215083       0.00001379      -0.00002130      -0.36238215      -0.26130287      -0.34744879       0.00001759      -0.16359992      -0.21875292       0.00000853       0.48278358       0.30632025       0.00000288      -0.69820572      -0.29455875      -0.00001027       0.02592478      -0.00170746      -0.00000047       0.14231053       0.07013525      -0.00000169       0.00000177       0.00000092      -0.00802904      -0.04305025      -0.02800456      -0.00000805      -0.00005238      -0.00002959       0.00527918      -0.00992177      -0.02082881       0.00000470      -0.09364233      -0.31960744       0.00001265       0.00000102      -0.00000173       0.00073319      -0.00001375       0.00002477       0.00369220      -0.00147123       0.00050098      -0.00000003       0.05798142      -0.10653127       0.00000944       0.00263952       0.00228123       0.00000018      -0.29272474       0.53003730      -0.00004083       0.06111051      -0.10580323       0.00000794       0.37384828      -0.67477344       0.00005153
C        2.26614180       1.24754814       0.00000075       0.00000000       0.00000064      -0.00163317       0.00000376      -0.00000455      -0.03036321      -0.17854881       0.21668266      -0.00000111      -0.00000537       0.00002404       0.31873323       0.13163731      -0.25693466       0.00002510       0.25133789       0.13850348      -0.00000696      -0.00000009       0.00000014       0.25757433      -0.00000038       0.00000026       0.01732631      -0.00001027       0.00000881       0.15158778       0.13399870      -0.08703780       0.00001304      -0.19513550      -0.13125230      -0.00000206       0.00000013       0.00000124       0.01471269       0.11134166       0.06340881       0.00000288      -0.00000205       0.00000127      -0.03023449      -0.09497275       0.02562032      -0.00000832      -0.00000859       0.00000933       0.11557687       0.00000568      -0.00000408      -0.08465415       0.10623428       0.24745484      -0.00001057      -0.05345672       0.10850493      -0.00000744       0.04664189      -0.02488755       0.00000462       0.00622164       0.02293161      -0.00000181       0.01072908       0.02900301      -0.00000043       0.06860267       0.11099975       0.00000030       0.00000067      -0.00000013      -0.00200733      -0.02778977       0.00307268      -0.00007572      -0.00004478       0.00000457       0.06540240       0.05772947      -0.01541711       0.00001262      -0.05318765      -0.03068693      -0.00000054       0.00000055      -0.00000131      -0.00638645      -0.00000883       0.00002204       0.08727075      -0.00118803       0.00286338      -0.00000153       0.02733381      -0.05831576       0.00003092      -0.00000593      -0.00203408       0.00000061      -0.04197136       0.00514487       0.00000124      -0.04932291       0.00929947       0.00000061      -0.03079494       0.01285262      -0.00000109
C       -0.92593474      -1.24471612       0.00000688       0.00000014      -0.00000024      -0.00923303      -0.00000311       0.00000435       0.01633727       0.16758870      -0.22243930      -0.00000102      -0.00000401       0.00002213       0.24922850       0.13161823      -0.25690841       0.00002061       0.26227070       0.12463071      -0.00000594      -0.00000027      -0.00000116      -0.30214224      -0.00000018       0.00000057       0.01828406      -0.00000660       0.00001084       0.14867095       0.12293809      -0.09287306       0.00001257       0.19936508       0.12648929       0.00000007       0.00000171      -0.00000039      -0.01526793      -0.14599208      -0.05166386       0.00000016      -0.00000333      -0.00000220      -0.06812771      -0.05111669       0.04280996       0.00000149       0.00000110      -0.00000124      -0.07839776       0.00000358      -0.00000650      -0.09855629       0.11449488       0.15934526      -0.00000230       0.01352189      -0.16686128       0.00001043       0.05423512      -0.03820069       0.00000307      -0.00115186      -0.00966331      -0.00000001      -0.09094559      -0.10727753       0.00000456       0.02782329       0.02415416      -0.00000094       0.00000140       0.00000440       0.06661808       0.03954585      -0.04696205       0.00000071       0.00004190      -0.00004973       0.00082544       0.01353395      -0.02021955       0.00000051       0.05749175       0.03690425       0.00000028      -0.00001106       0.00000358       0.08720454      -0.00000070       0.00000033       0.00603910       0.06206633      -0.00382978       0.00001505       0.00325967      -0.00116040       0.00000110      -0.03474246       0.05627525      -0.00000170      -0.00989519       0.01287362      -0.00000069       0.01524023      -0.01978951       0.00000121      -0.01040151       0.01321791      -0.00000087
H       -0.21831032      -2.08313919       0.00002887       0.00000160      -0.00000146      -0.10083381      -0.00000212      -0.00000281      -0.31356864       0.29843930      -0.13695535      -0.00001907      -0.00000332       0.00002146       0.20189117       0.13161165      -0.25690993       0.00001646       0.26639292       0.12732349      -0.00000494      -0.00000156      -0.00000491      -0.42507244      -0.00000404      -0.00001339      -0.46092315      -0.00002245       0.00000669       0.40859597       0.38165451       0.07589547       0.00002524       0.43622519       0.27931690       0.00000177      -0.00001008      -0.00000438       0.12476939       0.32998317       0.24392942      -0.00000037       0.00001315       0.00001284       0.11444621       0.29543610       0.25465887      -0.00000927       0.00000138       0.00000446       0.15024402      -0.00001978      -0.00001408       0.17756247       0.18647989       0.20179481      -0.00001051      -0.43823424      -0.43602967       0.00000258      -0.07133306      -0.09829992       0.00000167       0.03023229       0.00699931       0.00000197       0.44795246       0.27634825      -0.00002255      -0.11353140      -0.07232474       0.00000564      -0.00001157      -0.00002387      -0.74144767       0.32463142       0.19171584       0.00000742       0.00034882       0.00020606      -0.01951584       0.12125078       0.07063811      -0.00000541      -0.12631981      -0.07943893      -0.00000047       0.00000335      -0.00001053       0.04451319       0.00000101      -0.00000196       0.00328012       0.00989503       0.02265317       0.00000683      -0.00872374       0.01488923       0.00000021       0.50696671      -0.75174654       0.00001735       0.10840449      -0.15660925       0.00000344      -0.16761756       0.24684595      -0.00000529       0.11204245      -0.17035354       0.00000360
H       -1.54909278      -1.23647309      -0.84829785      -0.02303303       0.07152781       0.00719866      -0.17624020       0.20376276       0.14522469       0.16774672      -0.31496176       0.00000388      -0.01064561       0.03879589       0.25697373       0.13161377      -0.25689506       0.00002285       0.26227039       0.12170681      -0.00000323       0.04469295       0.14787579      -0.33509333      -0.42645717       0.20307413       0.33428655      -0.05010974      -0.27979909       0.18619182       0.12571172      -0.28365084      -0.00125232       0.20358506      -0.05481926      -0.00326009      -0.11391921      -0.19771224       0.07280009      -0.09943192      -0.44381123      -0.02122794      -0.18587509      -0.25240040       0.08167167      -0.00992895      -0.21165675      -0.02157166      -0.21678520      -0.25634650       0.09842120      -0.26165188      -0.30269846       0.11691153       0.10882198       0.17522959      -0.00415539      -0.04893354       0.11637381       0.03914240       0.02408742       0.20143801       0.01576263       0.03370464       0.01723672      -0.02063229       0.27006357       0.44143258      -0.21934998      -0.07500125      -0.09233370       0.06274402       0.13435837      -0.44453674      -0.07975441      -0.45897194       0.20084171       0.33819019       0.00142173      -0.01437724      -0.00094910      -0.16866345       0.07736011       0.12385643       0.13781233       0.10042534      -0.08918954      -0.43233465       0.00950821      -0.55276834      -0.03076054       0.00063043      -0.03898911      -0.38855873       0.00429256      -0.58670372      -0.01635797      -0.00041000      -0.02564220      -0.04081060       0.02629916      -0.02925833       0.00242432       0.00559240       0.00975410      -0.00472067      -0.00866414      -0.01711482       0.00515842       0.00579635       0.01473797
H       -1.54907964      -1.23642795       0.84832377       0.02303333      -0.07152980       0.00720195       0.17623580      -0.20375123       0.14523305       0.16775775      -0.31498371       0.00000686       0.01063771      -0.03875260       0.25697559       0.13161624      -0.25690146       0.00002016       0.26226953       0.12170837      -0.00000912      -0.04469391      -0.14787921      -0.33508519       0.42646250      -0.20305744       0.33429239       0.05009640       0.27984955       0.18617676       0.12571635      -0.28361181       0.00129065       0.20359152      -0.05480302       0.00327455       0.11392194       0.19773921       0.07278798      -0.09942002      -0.44378820       0.02125639       0.18587247       0.25238663       0.08165780      -0.00994001      -0.21167137       0.02157788       0.21678893       0.25635938       0.09840513       0.26165500       0.30273459       0.11688920       0.10881152       0.17520910       0.00414245      -0.04896213       0.11634832      -0.03915919       0.02407891       0.20142718      -0.01577508       0.03370743       0.01724197       0.02063293       0.27006106       0.44145546       0.21932032      -0.07500127      -0.09234110      -0.06273761      -0.13435838       0.44451594      -0.07977585      -0.45897434       0.20079749      -0.33819282      -0.00240649       0.01480353      -0.00167504      -0.16866530       0.07735731      -0.12385835       0.13780618       0.10042463       0.08918131       0.43246890      -0.00953741      -0.55298764       0.03076896      -0.00063221      -0.03900329      -0.38839960       0.00431917       0.58651413      -0.01634650      -0.00040897       0.02562826      -0.04081412       0.02630081       0.02926249       0.00242078       0.00559217      -0.00975009      -0.00471291      -0.00866355       0.01710598       0.00515262       0.00579598      -0.01473134
H        3.28182622       1.00898653      -0.00001866       0.00001254       0.00000851       0.52323539      -0.00000131      -0.00000267      -0.29312695      -0.14041746       0.36786117      -0.00001593      -0.00000545       0.00002569       0.29507452       0.13163423      -0.25694127       0.00002271       0.25253904       0.14327359      -0.00000640       0.00000126       0.00000457       0.26872609       0.00000050      -0.00000174       0.08015377       0.00000201       0.00004431       0.31679203       0.05729032      -0.39284134       0.00003586      -0.13440191       0.11337077      -0.00001605      -0.00000813      -0.00001928      -0.13589931       0.19650356       0.43324237      -0.00002227      -0.00000249      -0.00001024       0.05742695      -0.21622722      -0.51975074       0.00002985      -0.00003262      -0.00006827      -0.22401015       0.00002018       0.00004138       0.15075487       0.06847284       0.06091775       0.00000206      -0.13669139      -0.29661843       0.00001328       0.09589148       0.20387949      -0.00001435      -0.02095973      -0.06029168       0.00000007      -0.03451666      -0.13223796      -0.00000083      -0.10735463      -0.48483310      -0.00001161       0.00000021      -0.00000214       0.02014265       0.02580358       0.13996196       0.00085952       0.00003440       0.00025671      -0.73842668      -0.08581795      -0.39884144      -0.00016021      -0.07508123      -0.18413483      -0.00000932      -0.00000292       0.00000033      -0.00355338       0.00003578      -0.00000056       0.04759343       0.00227532       0.00049372      -0.00000092      -0.07167183      -0.00305770       0.00001821       0.01060288      -0.00387384       0.00000010       0.58732173      -0.16094955      -0.00001235       0.66308685      -0.18107917      -0.00001412       0.36928893      -0.09932017      -0.00000834
H        2.00284897       1.82181801       0.87749338      -0.38970035       0.25548151      -0.27186601       0.16878549      -0.20007444       0.14737525      -0.26629060       0.18782582       0.00001765       0.01003065      -0.03842018       0.34776801       0.13164083      -0.25692932       0.00002430       0.24855840       0.13758884      -0.00000610      -0.04637114      -0.14681771       0.34910521      -0.03932354       0.04548490      -0.02283457      -0.18613037      -0.19998300       0.24855723       0.31144170      -0.02932479       0.00065966      -0.33926892      -0.17215769      -0.00278925       0.14557211       0.17632194      -0.08047580      -0.12362475       0.00766069      -0.01350626      -0.06791210      -0.10147841       0.03297983       0.29101812       0.10162906       0.02731278       0.26701291       0.43337716      -0.14913693      -0.18076232      -0.30311621       0.10009753       0.29150040       0.25676395       0.01768002       0.27848046       0.14252928       0.03831266      -0.04590182       0.01001423      -0.03648165      -0.07086406      -0.04583906       0.02636839      -0.06835442      -0.10721110       0.06331540      -0.31662067      -0.41684712       0.23119345       0.01286135       0.00026374       0.00192454       0.13484118      -0.12842087       0.12170728      -0.46673629      -0.02279946      -0.07835063      -0.34318058       0.35780977      -0.32982506      -0.00419509       0.00137315       0.00449090      -0.01096643       0.02813717       0.03912881       0.14811459      -0.40570971      -0.55351962       0.00622564      -0.01742444      -0.02774605      -0.12568961       0.36306227       0.58069742      -0.00536172       0.01510332       0.02354325      -0.03514514       0.04493377       0.06170832      -0.03280182       0.03735052       0.04406343      -0.00323700      -0.02603458      -0.05164446
H        2.00279579       1.82180744      -0.87748802       0.38968091      -0.25548062      -0.27188155      -0.16877265       0.20006499       0.14738236      -0.26630908       0.18784216       0.00000009      -0.01004206       0.03846769       0.34776830       0.13163845      -0.25692296       0.00003087       0.24855897       0.13758713      -0.00000900       0.04636979       0.14681648       0.34910221       0.03932320      -0.04548397      -0.02283639       0.18607150       0.19998772       0.24854762       0.31148368      -0.02928780      -0.00062642      -0.33929479      -0.17218735       0.00277792      -0.14554871      -0.17630905      -0.08046630      -0.12366058       0.00761153       0.01349535       0.06792893       0.10147921       0.03297125       0.29107512       0.10171594      -0.02729764      -0.26693168      -0.43333772      -0.14912870       0.18071953       0.30309916       0.10009264       0.29153333       0.25682087      -0.01767720       0.27851221       0.14258290      -0.03831135      -0.04590944       0.00998680       0.03647474      -0.07086289      -0.04583262      -0.02636404      -0.06835308      -0.10721018      -0.06331219      -0.31661478      -0.41685389      -0.23118277      -0.01286713      -0.00026026       0.00192916       0.13374851      -0.12847331      -0.12152973       0.46720310       0.02235771      -0.07879047      -0.34295751       0.35782489       0.32980630      -0.00416307       0.00139010      -0.00448520       0.01096288      -0.02812162       0.03910378      -0.14804792       0.40543586      -0.55308054       0.00623228      -0.01743821       0.02776503      -0.12582386       0.36335062      -0.58109120      -0.00536490       0.01510911      -0.02355097      -0.03514875       0.04493546      -0.06171018      -0.03280208       0.03734692      -0.04405734      -0.00322888      -0.02604925       0.05166509
12
Properties=species:S:1:pos:R:3:xtb2_normal_mode_displacements_0:R:3:xtb2_normal_mode_displacements_1:R:3:xtb2_normal_mode_displacements_2:R:3:xtb2_normal_mode_displacements_3:R:3:xtb2_normal_mode_displacements_4:R:3:xtb2_normal_mode_displacements_5:R:3:xtb2_normal_mode_displacements_6:R:3:xtb2_normal_mode_displacements_7:R:3:xtb2_normal_mode_displacements_8:R:3:xtb2_normal_mode_displacements_9:R:3:xtb2_normal_mode_displacements_10:R:3:xtb2_normal_mode_displacements_11:R:3:xtb2_normal_mode_displacements_12:R:3:xtb2_normal_mode_displacements_13:R:3:xtb2_normal_mode_displacements_14:R:3:xtb2_normal_mode_displacements_15:R:3:xtb2_normal_mode_displacements_16:R:3:xtb2_normal_mode_displacements_17:R:3:xtb2_normal_mode_displacements_18:R:3:xtb2_normal_mode_displacements_19:R:3:xtb2_normal_mode_displacements_20:R:3:xtb2_normal_mode_displacements_21:R:3:xtb2_normal_mode_displacements_22:R:3:xtb2_normal_mode_displacements_23:R:3:xtb2_normal_mode_displacements_24:R:3:xtb2_normal_mode_displacements_25:R:3:xtb2_normal_mode_displacements_26:R:3:xtb2_normal_mode_displacements_27:R:3:xtb2_normal_mode_displacements_28:R:3:xtb2_normal_mode_displacements_29:R:3:xtb2_normal_mode_displacements_30:R:3:xtb2_normal_mode_displacements_31:R:3:xtb2_normal_mode_displacements_32:R:3:xtb2_normal_mode_displacements_33:R:3:xtb2_normal_mode_displacements_34:R:3:xtb2_normal_mode_displacements_35:R:3 butene=T reference=T _ConfigSet_loc=" / 0 / 0" xtb2_normal_mode_frequencies="-0.020805350599677645 -0.0012520287572930428 -0.0008057157555249398 -4.5646307594914854e-05 -1.544271636343004e-06 2.0070667760733657e-05 0.0007792852814774499 0.020007895212821186 0.030827178750387946 0.03379472539721994 0.06147046924481604 0.08694186489268312 0.11505838067939451 0.12427408663486034 0.12511644226890012 0.12691071213329774 0.13044988333222152 0.1391633835201524 0.14195157959406351 0.15814728268344924 0.161403301474211 0.17400433576408564 0.17465713361699353 0.18358617565523236 0.18451272219423798 0.18453214420220326 0.18474813708238022 0.21569178023426594 0.3710653957286146 0.37201378110443734 0.3729909202179395 0.3734662167474916 0.37645626122957077 0.3776743594254655 0.3781192902563234 0.379676400084026" pbc="F F F"
C        0.63276255       0.09165046      -0.00000803      -0.00000219       0.00000336       0.06748807      -0.00000559       0.00000916       0.12212985      -0.00614295      -0.09692342       0.00000606      -0.00000501       0.00002407       0.29206110       0.13163050      -0.25691768       0.00002379       0.25677989       0.12859307      -0.00000667       0.00000163       0.00000451      -0.05405953       0.00000299      -0.00000375      -0.09743338       0.00001026      -0.00001152      -0.17628007      -0.15989949       0.12211245      -0.00001533       0.01200567       0.17692842      -0.00000709       0.00000474      -0.00000819      -0.14139153      -0.03346491       0.08690673      -0.00000724       0.00000078      -0.00000096      -0.00122224       0.02641785      -0.04570419       0.00000106      -0.00000306       0.00000180       0.09531005      -0.00000429       0.00000765       0.10139995      -0.13752430      -0.17267510       0.00000252       0.02319795       0.20679016      -0.00001116      -0.08855670      -0.02362058      -0.00000150       0.03987610      -0.08167344       0.00000626       0.00648479       0.02268491      -0.00000070      -0.01422627       0.00480927      -0.00000080      -0.00000038      -0.00000073       0.01148138      -0.00519387      -0.00462566       0.00000003      -0.00000407      -0.00000610      -0.00033160       0.00415898       0.00502256      -0.00000046      -0.55546241      -0.07424367      -0.00001728      -0.00000071      -0.00000031       0.00179280      -0.00000007      -0.00000116      -0.00012193       0.00139831       0.00495002       0.00000006      -0.00092282       0.00483815      -0.00000038       0.01637363      -0.02591311       0.00000203      -0.02077876       0.02980516      -0.00000235       0.02835169      -0.04467337       0.00000347      -0.01735652       0.03406534      -0.00000244
C        0.73658244      -0.09422462       0.00000574       0.00000248      -0.00000404      -0.04758114       0.00000487      -0.00000777      -0.14330379      -0.00260990       0.09284680      -0.00000763      -0.00000435       0.00002238       0.27498941       0.13163092      -0.25692797       0.00002184       0.25689140       0.13459017      -0.00000618      -0.00000103      -0.00000460       0.00726094      -0.00000254       0.00000268       0.04453399       0.00001204      -0.00001492      -0.22198727      -0.15883473       0.12881301      -0.00001835      -0.01985896      -0.16863397       0.00000972      -0.00000683       0.00000684       0.14939235       0.04389036      -0.09101025       0.00000701       0.00000317      -0.00000415      -0.03581761       0.01362209      -0.00488053       0.00000802       0.00000432      -0.00000772      -0.09567610      -0.00000354       0.00000275       0.08222047      -0.13336065      -0.28197104       0.00001021       0.02611065      -0.13426829       0.00000769      -0.10191264      -0.01324020      -0.00000399      -0.02938487       0.08349719      -0.00000518       0.01089938      -0.00969461       0.00000117      -0.00933056      -0.01438009       0.00000074      -0.00000062       0.00000017       0.00060586       0.02338722       0.01169582      -0.00001147       0.00002412       0.00001731       0.01055505       0.00971860      -0.01258606       0.00000254       0.54379582       0.07123561       0.00001871       0.00000018       0.00000008       0.00022403       0.00000188      -0.00000098       0.00148631      -0.00126622       0.00038203      -0.00000002      -0.00611694       0.00606801      -0.00000014      -0.00118201      -0.00189184       0.00000006       0.02560914      -0.04094076       0.00000331      -0.00864247       0.00685988      -0.00000064      -0.03178962       0.05562476      -0.00000426
H       -0.54039507       0.84980218      -0.00009219      -0.00000799       0.00001294       0.24073037      -0.00001597       0.00002701       0.44309473      -0.14260435      -0.17165367       0.00002342      -0.00000633       0.00002689       0.34029384       0.13164507      -0.25690780       0.00002798       0.25246350       0.12622903      -0.00000768       0.00000521       0.00001637       0.08091855       0.00000958      -0.00001007      -0.23001709       0.00001094      -0.00000788      -0.13405564      -0.29191125       0.04257858      -0.00001480       0.15496007       0.24046056      -0.00000564      -0.00002502       0.00002685       0.55583124       0.20434738       0.21511290      -0.00001770      -0.00000401       0.00004071       0.59991421       0.32683170       0.12343428      -0.00002387       0.00001952      -0.00001364      -0.28563826       0.00000848      -0.00002303      -0.40478354      -0.19671369      -0.20921844       0.00000259       0.16774450       0.26476721      -0.00000327       0.60384886       0.35623080       0.00000292       0.57782630       0.22519915       0.00001200      -0.09406086      -0.03294611      -0.00000456      -0.00650655       0.00895070      -0.00000115       0.00000264      -0.00000174      -0.02891030      -0.01490400      -0.00968248      -0.00000381      -0.00001750      -0.00001322       0.00144163      -0.01658667      -0.00653431       0.00000042       0.11550566       0.34134069      -0.00001428      -0.00000065       0.00000129      -0.00120519      -0.00000607       0.00001240       0.00191578       0.02681777      -0.04941507       0.00000311       0.02596940      -0.05214566       0.00000450      -0.19482453       0.35551819      -0.00002604       0.22291874      -0.39554666       0.00002940      -0.31027083       0.55823993      -0.00004127       0.21747286      -0.39443643       0.00002913
H        1.88455882      -0.86431536       0.00009517       0.00000784      -0.00001563      -0.24023474       0.00001594      -0.00002628      -0.46365068       0.13404370       0.16680055      -0.00002494      -0.00000297       0.00001944       0.22671233       0.13163114      -0.25692585       0.00001765       0.26120454       0.13692367      -0.00000517      -0.00000457      -0.00001689      -0.12839147      -0.00000964       0.00001033       0.19526079       0.00001711      -0.00001739      -0.29244002      -0.28499698       0.05396827      -0.00002182      -0.14217064      -0.22123064       0.00000915       0.00002006      -0.00003705      -0.61807004       0.00398675      -0.11100080      -0.00001066      -0.00000379       0.00004175       0.61239598       0.29541506       0.14904564      -0.00004484       0.00000089      -0.00000079       0.02215083       0.00001379      -0.00002130      -0.36238215      -0.26130287      -0.34744879       0.00001759      -0.16359992      -0.21875292       0.00000853       0.48278358       0.30632025       0.00000288      -0.69820572      -0.29455875      -0.00001027       0.02592478      -0.00170746      -0.00000047       0.14231053       0.07013525      -0.00000169       0.00000177       0.00000092      -0.00802904      -0.04305025      -0.02800456      -0.00000805      -0.00005238      -0.00002959       0.00527918      -0.00992177      -0.02082881       0.00000470      -0.09364233      -0.31960744       0.00001265       0.00000102      -0.00000173       0.00073319      -0.00001375       0.00002477       0.00369220      -0.00147123       0.00050098      -0.00000003       0.05798142      -0.10653127       0.00000944       0.00263952       0.00228123       0.00000018      -0.29272474       0.53003730      -0.00004083       0.06111051      -0.10580323       0.00000794       0.37384828      -0.67477344       0.00005153
C        2.26128408       1.24474546       0.00000070       0.00000000       0.00000064      -0.00163317       0.00000376      -0.00000455      -0.03036321      -0.17854881       0.21668266      -0.00000111      -0.00000537       0.00002404       0.31873323       0.13163731      -0.25693466       0.00002510       0.25133789       0.13850348      -0.00000696      -0.00000009       0.00000014       0.25757433      -0.00000038       0.00000026       0.01732631      -0.00001027       0.00000881       0.15158778       0.13399870      -0.08703780       0.00001304      -0.19513550      -0.13125230      -0.00000206       0.00000013       0.00000124       0.01471269       0.11134166       0.06340881       0.00000288      -0.00000205       0.00000127      -0.03023449      -0.09497275       0.02562032      -0.00000832      -0.00000859       0.00000933       0.11557687       0.00000568      -0.00000408      -0.08465415       0.10623428       0.24745484      -0.00001057      -0.05345672       0.10850493      -0.00000744       0.04664189      -0.02488755       0.00000462       0.00622164       0.02293161      -0.00000181       0.01072908       0.02900301      -0.00000043       0.06860267       0.11099975       0.00000030       0.00000067      -0.00000013      -0.00200733      -0.02778977       0.00307268      -0.00007572      -0.00004478       0.00000457       0.06540240       0.05772947      -0.01541711       0.00001262      -0.05318765      -0.03068693      -0.00000054       0.00000055      -0.00000131      -0.00638645      -0.00000883       0.00002204       0.08727075      -0.00118803       0.00286338      -0.00000153       0.02733381      -0.05831576       0.00003092      -0.00000593      -0.00203408       0.00000061      -0.04197136       0.00514487       0.00000124      -0.04932291       0.00929947       0.00000061      -0.03079494       0.01285262      -0.00000109
C       -0.92068392      -1.24134560       0.00000691       0.00000014      -0.00000024      -0.00923303      -0.00000311       0.00000435       0.01633727       0.16758870      -0.22243930      -0.00000102      -0.00000401       0.00002213       0.24922850       0.13161823      -0.25690841       0.00002061       0.26227070       0.12463071      -0.00000594      -0.00000027      -0.00000116      -0.30214224      -0.00000018       0.00000057       0.01828406      -0.00000660       0.00001084       0.14867095       0.12293809      -0.09287306       0.00001257       0.19936508       0.12648929       0.00000007       0.00000171      -0.00000039      -0.01526793      -0.14599208      -0.05166386       0.00000016      -0.00000333      -0.00000220      -0.06812771      -0.05111669       0.04280996       0.00000149       0.00000110      -0.00000124      -0.07839776       0.00000358      -0.00000650      -0.09855629       0.11449488       0.15934526      -0.00000230       0.01352189      -0.16686128       0.00001043       0.05423512      -0.03820069       0.00000307      -0.00115186      -0.00966331      -0.00000001      -0.09094559      -0.10727753       0.00000456       0.02782329       0.02415416      -0.00000094       0.00000140       0.00000440       0.06661808       0.03954585      -0.04696205       0.00000071       0.00004190      -0.00004973       0.00082544       0.01353395      -0.02021955       0.00000051       0.05749175       0.03690425       0.00000028      -0.00001106       0.00000358       0.08720454      -0.00000070       0.00000033       0.00603910       0.06206633      -0.00382978       0.00001505       0.00325967      -0.00116040       0.00000110      -0.03474246       0.05627525      -0.00000170      -0.00989519       0.01287362      -0.00000069       0.01524023      -0.01978951       0.00000121      -0.01040151       0.01321791      -0.00000087
H       -0.22165252      -2.08524100       0.00002886       0.00000160      -0.00000146      -0.10083381      -0.00000212      -0.00000281      -0.31356864       0.29843930      -0.13695535      -0.00001907      -0.00000332       0.00002146       0.20189117       0.13161165      -0.25690993       0.00001646       0.26639292       0.12732349      -0.00000494      -0.00000156      -0.00000491      -0.42507244      -0.00000404      -0.00001339      -0.46092315      -0.00002245       0.00000669       0.40859597       0.38165451       0.07589547       0.00002524       0.43622519       0.27931690       0.00000177      -0.00001008      -0.00000438       0.12476939       0.32998317       0.24392942      -0.00000037       0.00001315       0.00001284       0.11444621       0.29543610       0.25465887      -0.00000927       0.00000138       0.00000446       0.15024402      -0.00001978      -0.00001408       0.17756247       0.18647989       0.20179481      -0.00001051      -0.43823424      -0.43602967       0.00000258      -0.07133306      -0.09829992       0.00000167       0.03023229       0.00699931       0.00000197       0.44795246       0.27634825      -0.00002255      -0.11353140      -0.07232474       0.00000564      -0.00001157      -0.00002387      -0.74144767       0.32463142       0.19171584       0.00000742       0.00034882       0.00020606      -0.01951584       0.12125078       0.07063811      -0.00000541      -0.12631981      -0.07943893      -0.00000047       0.00000335      -0.00001053       0.04451319       0.00000101      -0.00000196       0.00328012       0.00989503       0.02265317       0.00000683      -0.00872374       0.01488923       0.00000021       0.50696671      -0.75174654       0.00001735       0.10840449      -0.15660925       0.00000344      -0.16761756       0.24684595      -0.00000529       0.11204245      -0.17035354       0.00000360
H       -1.54544650      -1.23381600      -0.85065766      -0.02303303       0.07152781       0.00719866      -0.17624020       0.20376276       0.14522469       0.16774672      -0.31496176       0.00000388      -0.01064561       0.03879589       0.25697373       0.13161377      -0.25689506       0.00002285       0.26227039       0.12170681      -0.00000323       0.04469295       0.14787579      -0.33509333      -0.42645717       0.20307413       0.33428655      -0.05010974      -0.27979909       0.18619182       0.12571172      -0.28365084      -0.00125232       0.20358506      -0.05481926      -0.00326009      -0.11391921      -0.19771224       0.07280009      -0.09943192      -0.44381123      -0.02122794      -0.18587509      -0.25240040       0.08167167      -0.00992895      -0.21165675      -0.02157166      -0.21678520      -0.25634650       0.09842120      -0.26165188      -0.30269846       0.11691153       0.10882198       0.17522959      -0.00415539      -0.04893354       0.11637381       0.03914240       0.02408742       0.20143801       0.01576263       0.03370464       0.01723672      -0.02063229       0.27006357       0.44143258      -0.21934998      -0.07500125      -0.09233370       0.06274402       0.13435837      -0.44453674      -0.07975441      -0.45897194       0.20084171       0.33819019       0.00142173      -0.01437724      -0.00094910      -0.16866345       0.07736011       0.12385643       0.13781233       0.10042534      -0.08918954      -0.43233465       0.00950821      -0.55276834      -0.03076054       0.00063043      -0.03898911      -0.38855873       0.00429256      -0.58670372      -0.01635797      -0.00041000      -0.02564220      -0.04081060       0.02629916      -0.02925833       0.00242432       0.00559240       0.00975410      -0.00472067      -0.00866414      -0.01711482       0.00515842       0.00579635       0.01473797
H       -1.54543352      -1.23377089       0.85068336       0.02303333      -0.07152980       0.00720195       0.17623580      -0.20375123       0.14523305       0.16775775      -0.31498371       0.00000686       0.01063771      -0.03875260       0.25697559       0.13161624      -0.25690146       0.00002016       0.26226953       0.12170837      -0.00000912      -0.04469391      -0.14787921      -0.33508519       0.42646250      -0.20305744       0.33429239       0.05009640       0.27984955       0.18617676       0.12571635      -0.28361181       0.00129065       0.20359152      -0.05480302       0.00327455       0.11392194       0.19773921       0.07278798      -0.09942002      -0.44378820       0.02125639       0.18587247       0.25238663       0.08165780      -0.00994001      -0.21167137       0.02157788       0.21678893       0.25635938       0.09840513       0.26165500       0.30273459       0.11688920       0.10881152       0.17520910       0.00414245      -0.04896213       0.11634832      -0.03915919       0.02407891       0.20142718      -0.01577508       0.03370743       0.01724197       0.02063293       0.27006106       0.44145546       0.21932032      -0.07500127      -0.09234110      -0.06273761      -0.13435838       0.44451594      -0.07977585      -0.45897434       0.20079749      -0.33819282      -0.00240649       0.01480353      -0.00167504      -0.16866530       0.07735731      -0.12385835       0.13780618       0.10042463       0.08918131       0.43246890      -0.00953741      -0.55298764       0.03076896      -0.00063221      -0.03900329      -0.38839960       0.00431917       0.58651413      -0.01634650      -0.00040897       0.02562826      -0.04081412       0.02630081       0.02926249       0.00242078       0.00559217      -0.00975009      -0.00471291      -0.00866355       0.01710598       0.00515262       0.00579598      -0.01473134
H        3.27983969       1.00411464      -0.00001891       0.00001254       0.00000851       0.52323539      -0.00000131      -0.00000267      -0.29312695      -0.14041746       0.36786117      -0.00001593      -0.00000545       0.00002569       0.29507452       0.13163423      -0.25694127       0.00002271       0.25253904       0.14327359      -0.00000640       0.00000126       0.00000457       0.26872609       0.00000050      -0.00000174       0.08015377       0.00000201       0.00004431       0.31679203       0.05729032      -0.39284134       0.00003586      -0.13440191       0.11337077      -0.00001605      -0.00000813      -0.00001928      -0.13589931       0.19650356       0.43324237      -0.00002227      -0.00000249      -0.00001024       0.05742695      -0.21622722      -0.51975074       0.00002985      -0.00003262      -0.00006827      -0.22401015       0.00002018       0.00004138       0.15075487       0.06847284       0.06091775       0.00000206      -0.13669139      -0.29661843       0.00001328       0.09589148       0.20387949      -0.00001435      -0.02095973      -0.06029168       0.00000007      -0.03451666      -0.13223796      -0.00000083      -0.10735463      -0.48483310      -0.00001161       0.00000021      -0.00000214       0.02014265       0.02580358       0.13996196       0.00085952       0.00003440       0.00025671      -0.73842668      -0.08581795      -0.39884144      -0.00016021      -0.07508123      -0.18413483      -0.00000932      -0.00000292       0.00000033      -0.00355338       0.00003578      -0.00000056       0.04759343       0.00227532       0.00049372      -0.00000092      -0.07167183      -0.00305770       0.00001821       0.01060288      -0.00387384       0.00000010       0.58732173      -0.16094955      -0.00001235       0.66308685      -0.18107917      -0.00001412       0.36928893      -0.09932017      -0.00000834
H        2.00273797       1.82185435       0.87761220      -0.38970035       0.25548151      -0.27186601       0.16878549      -0.20007444       0.14737525      -0.26629060       0.18782582       0.00001765       0.01003065      -0.03842018       0.34776801       0.13164083      -0.25692932       0.00002430       0.24855840       0.13758884      -0.00000610      -0.04637114      -0.14681771       0.34910521      -0.03932354       0.04548490      -0.02283457      -0.18613037      -0.19998300       0.24855723       0.31144170      -0.02932479       0.00065966      -0.33926892      -0.17215769      -0.00278925       0.14557211       0.17632194      -0.08047580      -0.12362475       0.00766069      -0.01350626      -0.06791210      -0.10147841       0.03297983       0.29101812       0.10162906       0.02731278       0.26701291       0.43337716      -0.14913693      -0.18076232      -0.30311621       0.10009753       0.29150040       0.25676395       0.01768002       0.27848046       0.14252928       0.03831266      -0.04590182       0.01001423      -0.03648165      -0.07086406      -0.04583906       0.02636839      -0.06835442      -0.10721110       0.06331540      -0.31662067      -0.41684712       0.23119345       0.01286135       0.00026374       0.00192454       0.13484118      -0.12842087       0.12170728      -0.46673629      -0.02279946      -0.07835063      -0.34318058       0.35780977      -0.32982506      -0.00419509       0.00137315       0.00449090      -0.01096643       0.02813717       0.03912881       0.14811459      -0.40570971      -0.55351962       0.00622564      -0.01742444      -0.02774605      -0.12568961       0.36306227       0.58069742      -0.00536172       0.01510332       0.02354325      -0.03514514       0.04493377       0.06170832      -0.03280182       0.03735052       0.04406343      -0.00323700      -0.02603458      -0.05164446
H        2.00268564       1.82184422      -0.87760669       0.38968091      -0.25548062      -0.27188155      -0.16877265       0.20006499       0.14738236      -0.26630908       0.18784216       0.00000009      -0.01004206       0.03846769       0.34776830       0.13163845      -0.25692296       0.00003087       0.24855897       0.13758713      -0.00000900       0.04636979       0.14681648       0.34910221       0.03932320      -0.04548397      -0.02283639       0.18607150       0.19998772       0.24854762       0.31148368      -0.02928780      -0.00062642      -0.33929479      -0.17218735       0.00277792      -0.14554871      -0.17630905      -0.08046630      -0.12366058       0.00761153       0.01349535       0.06792893       0.10147921       0.03297125       0.29107512       0.10171594      -0.02729764      -0.26693168      -0.43333772      -0.14912870       0.18071953       0.30309916       0.10009264       0.29153333       0.25682087      -0.01767720       0.27851221       0.14258290      -0.03831135      -0.04590944       0.00998680       0.03647474      -0.07086289      -0.04583262      -0.02636404      -0.06835308      -0.10721018      -0.06331219      -0.31661478      -0.41685389      -0.23118277      -0.01286713      -0.00026026       0.00192916       0.13374851      -0.12847331      -0.12152973       0.46720310       0.02235771      -0.07879047      -0.34295751       0.35782489       0.32980630      -0.00416307       0.00139010      -0.00448520       0.01096288      -0.02812162       0.03910378      -0.14804792       0.40543586      -0.55308054       0.00623228      -0.01743821       0.02776503      -0.12582386       0.36335062      -0.58109120      -0.00536490       0.01510911      -0.02355097      -0.03514875       0.04493546      -0.06171018      -0.03280208       0.03734692      -0.04405734      -0.00322888      -0.02604925       0.05166509
12
Properties=species:S:1:pos:R:3:xtb2_normal_mode_displacements_0:R:3:xtb2_normal_mode_displacements_1:R:3:xtb2_normal_mode_displacements_2:R:3:xtb2_normal_mode_displacements_3:R:3:xtb2_normal_mode_displacements_4:R:3:xtb2_normal_mode_displacements_5:R:3:xtb2_normal_mode_displacements_6:R:3:xtb2_normal_mode_displacements_7:R:3:xtb2_normal_mode_displacements_8:R:3:xtb2_normal_mode_displacements_9:R:3:xtb2_normal_mode_displacements_10:R:3:xtb2_normal_mode_displacements_11:R:3:xtb2_normal_mode_displacements_12:R:3:xtb2_normal_mode_displacements_13:R:3:xtb2_normal_mode_displacements_14:R:3:xtb2_normal_mode_displacements_15:R:3:xtb2_normal_mode_displacements_16:R:3:xtb2_normal_mode_displacements_17:R:3:xtb2_normal_mode_displacements_18:R:3:xtb2_normal_mode_displacements_19:R:3:xtb2_normal_mode_displacements_20:R:3:xtb2_normal_mode_displacements_21:R:3:xtb2_normal_mode_displacements_22:R:3:xtb2_normal_mode_displacements_23:R:3:xtb2_normal_mode_displacements_24:R:3:xtb2_normal_mode_displacements_25:R:3:xtb2_normal_mode_displacements_26:R:3:xtb2_normal_mode_displacements_27:R:3:xtb2_normal_mode_displacements_28:R:3:xtb2_normal_mode_displacements_29:R:3:xtb2_normal_mode_displacements_30:R:3:xtb2_normal_mode_displacements_31:R:3:xtb2_normal_mode_displacements_32:R:3:xtb2_normal_mode_displacements_33:R:3:xtb2_normal_mode_displacements_34:R:3:xtb2_normal_mode_displacements_35:R:3 butene=T reference=T _ConfigSet_loc=" / 0 / 0" xtb2_normal_mode_frequencies="-0.020805350599677645 -0.0012520287572930428 -0.0008057157555249398 -4.5646307594914854e-05 -1.544271636343004e-06 2.0070667760733657e-05 0.0007792852814774499 0.020007895212821186 0.030827178750387946 0.03379472539721994 0.06147046924481604 0.08694186489268312 0.11505838067939451 0.12427408663486034 0.12511644226890012 0.12691071213329774 0.13044988333222152 0.1391633835201524 0.14195157959406351 0.15814728268344924 0.161403301474211 0.17400433576408564 0.17465713361699353 0.18358617565523236 0.18451272219423798 0.18453214420220326 0.18474813708238022 0.21569178023426594 0.3710653957286146 0.37201378110443734 0.3729909202179395 0.3734662167474916 0.37645626122957077 0.3776743594254655 0.3781192902563234 0.379676400084026" pbc="F F F"
C        0.48829206       0.07234039      -0.00001252      -0.00000219       0.00000336       0.06748807      -0.00000559       0.00000916       0.12212985      -0.00614295      -0.09692342       0.00000606      -0.00000501       0.00002407       0.29206110       0.13163050      -0.25691768       0.00002379       0.25677989       0.12859307      -0.00000667       0.00000163       0.00000451      -0.05405953       0.00000299      -0.00000375      -0.09743338       0.00001026      -0.00001152      -0.17628007      -0.15989949       0.12211245      -0.00001533       0.01200567       0.17692842      -0.00000709       0.00000474      -0.00000819      -0.14139153      -0.03346491       0.08690673      -0.00000724       0.00000078      -0.00000096      -0.00122224       0.02641785      -0.04570419       0.00000106      -0.00000306       0.00000180       0.09531005      -0.00000429       0.00000765       0.10139995      -0.13752430      -0.17267510       0.00000252       0.02319795       0.20679016      -0.00001116      -0.08855670      -0.02362058      -0.00000150       0.03987610      -0.08167344       0.00000626       0.00648479       0.02268491      -0.00000070      -0.01422627       0.00480927      -0.00000080      -0.00000038      -0.00000073       0.01148138      -0.00519387      -0.00462566       0.00000003      -0.00000407      -0.00000610      -0.00033160       0.00415898       0.00502256      -0.00000046      -0.55546241      -0.07424367      -0.00001728      -0.00000071      -0.00000031       0.00179280      -0.00000007      -0.00000116      -0.00012193       0.00139831       0.00495002       0.00000006      -0.00092282       0.00483815      -0.00000038       0.01637363      -0.02591311       0.00000203      -0.02077876       0.02980516      -0.00000235       0.02835169      -0.04467337       0.00000347      -0.01735652       0.03406534      -0.00000244
C        0.87801856      -0.07569692       0.00001061       0.00000248      -0.00000404      -0.04758114       0.00000487      -0.00000777      -0.14330379      -0.00260990       0.09284680      -0.00000763      -0.00000435       0.00002238       0.27498941       0.13163092      -0.25692797       0.00002184       0.25689140       0.13459017      -0.00000618      -0.00000103      -0.00000460       0.00726094      -0.00000254       0.00000268       0.04453399       0.00001204      -0.00001492      -0.22198727      -0.15883473       0.12881301      -0.00001835      -0.01985896      -0.16863397       0.00000972      -0.00000683       0.00000684       0.14939235       0.04389036      -0.09101025       0.00000701       0.00000317      -0.00000415      -0.03581761       0.01362209      -0.00488053       0.00000802       0.00000432      -0.00000772      -0.09567610      -0.00000354       0.00000275       0.08222047      -0.13336065      -0.28197104       0.00001021       0.02611065      -0.13426829       0.00000769      -0.10191264      -0.01324020      -0.00000399      -0.02938487       0.08349719      -0.00000518       0.01089938      -0.00969461       0.00000117      -0.00933056      -0.01438009       0.00000074      -0.00000062       0.00000017       0.00060586       0.02338722       0.01169582      -0.00001147       0.00002412       0.00001731       0.01055505       0.00971860      -0.01258606       0.00000254       0.54379582       0.07123561       0.00001871       0.00000018       0.00000008       0.00022403       0.00000188      -0.00000098       0.00148631      -0.00126622       0.00038203      -0.00000002      -0.00611694       0.00606801      -0.00000014      -0.00118201      -0.00189184       0.00000006       0.02560914      -0.04094076       0.00000331      -0.00864247       0.00685988      -0.00000064      -0.03178962       0.05562476      -0.00000426
H       -0.53169208       0.87552113      -0.00009327      -0.00000799       0.00001294       0.24073037      -0.00001597       0.00002701       0.44309473      -0.14260435      -0.17165367       0.00002342      -0.00000633       0.00002689       0.34029384       0.13164507      -0.25690780       0.00002798       0.25246350       0.12622903      -0.00000768       0.00000521       0.00001637       0.08091855       0.00000958      -0.00001007      -0.23001709       0.00001094      -0.00000788      -0.13405564      -0.29191125       0.04257858      -0.00001480       0.15496007       0.24046056      -0.00000564      -0.00002502       0.00002685       0.55583124       0.20434738       0.21511290      -0.00001770      -0.00000401       0.00004071       0.59991421       0.32683170       0.12343428      -0.00002387       0.00001952      -0.00001364      -0.28563826       0.00000848      -0.00002303      -0.40478354      -0.19671369      -0.20921844       0.00000259       0.16774450       0.26476721      -0.00000327       0.60384886       0.35623080       0.00000292       0.57782630       0.22519915       0.00001200      -0.09406086      -0.03294611      -0.00000456      -0.00650655       0.00895070      -0.00000115       0.00000264      -0.00000174      -0.02891030      -0.01490400      -0.00968248      -0.00000381      -0.00001750      -0.00001322       0.00144163      -0.01658667      -0.00653431       0.00000042       0.11550566       0.34134069      -0.00001428      -0.00000065       0.00000129      -0.00120519      -0.00000607       0.00001240       0.00191578       0.02681777      -0.04941507       0.00000311       0.02596940      -0.05214566       0.00000450      -0.19482453       0.35551819      -0.00002604       0.22291874      -0.39554666       0.00002940      -0.31027083       0.55823993      -0.00004127       0.21747286      -0.39443643       0.00002913
H        1.87750317      -0.88839678       0.00009612       0.00000784      -0.00001563      -0.24023474       0.00001594      -0.00002628      -0.46365068       0.13404370       0.16680055      -0.00002494      -0.00000297       0.00001944       0.22671233       0.13163114      -0.25692585       0.00001765       0.26120454       0.13692367      -0.00000517      -0.00000457      -0.00001689      -0.12839147      -0.00000964       0.00001033       0.19526079       0.00001711      -0.00001739      -0.29244002      -0.28499698       0.05396827      -0.00002182      -0.14217064      -0.22123064       0.00000915       0.00002006      -0.00003705      -0.61807004       0.00398675      -0.11100080      -0.00001066      -0.00000379       0.00004175       0.61239598       0.29541506       0.14904564      -0.00004484       0.00000089      -0.00000079       0.02215083       0.00001379      -0.00002130      -0.36238215      -0.26130287      -0.34744879       0.00001759      -0.16359992      -0.21875292       0.00000853       0.48278358       0.30632025       0.00000288      -0.69820572      -0.29455875      -0.00001027       0.02592478      -0.00170746      -0.00000047       0.14231053       0.07013525      -0.00000169       0.00000177       0.00000092      -0.00802904      -0.04305025      -0.02800456      -0.00000805      -0.00005238      -0.00002959       0.00527918      -0.00992177      -0.02082881       0.00000470      -0.09364233      -0.31960744       0.00001265       0.00000102      -0.00000173       0.00073319      -0.00001375       0.00002477       0.00369220      -0.00147123       0.00050098      -0.00000003       0.05798142      -0.10653127       0.00000944       0.00263952       0.00228123       0.00000018      -0.29272474       0.53003730      -0.00004083       0.06111051      -0.10580323       0.00000794       0.37384828      -0.67477344       0.00005153
C        2.24745048       1.23676408       0.00000056       0.00000000       0.00000064      -0.00163317       0.00000376      -0.00000455      -0.03036321      -0.17854881       0.21668266      -0.00000111      -0.00000537       0.00002404       0.31873323       0.13163731      -0.25693466       0.00002510       0.25133789       0.13850348      -0.00000696      -0.00000009       0.00000014       0.25757433      -0.00000038       0.00000026       0.01732631      -0.00001027       0.00000881       0.15158778       0.13399870      -0.08703780       0.00001304      -0.19513550      -0.13125230      -0.00000206       0.00000013       0.00000124       0.01471269       0.11134166       0.06340881       0.00000288      -0.00000205       0.00000127      -0.03023449      -0.09497275       0.02562032      -0.00000832      -0.00000859       0.00000933       0.11557687       0.00000568      -0.00000408      -0.08465415       0.10623428       0.24745484      -0.00001057      -0.05345672       0.10850493      -0.00000744       0.04664189      -0.02488755       0.00000462       0.00622164       0.02293161      -0.00000181       0.01072908       0.02900301      -0.00000043       0.06860267       0.11099975       0.00000030       0.00000067      -0.00000013      -0.00200733      -0.02778977       0.00307268      -0.00007572      -0.00004478       0.00000457       0.06540240       0.05772947      -0.01541711       0.00001262      -0.05318765      -0.03068693      -0.00000054       0.00000055      -0.00000131      -0.00638645      -0.00000883       0.00002204       0.08727075      -0.00118803       0.00286338      -0.00000153       0.02733381      -0.05831576       0.00003092      -0.00000593      -0.00203408       0.00000061      -0.04197136       0.00514487       0.00000124      -0.04932291       0.00929947       0.00000061      -0.03079494       0.01285262      -0.00000109
C       -0.90573086      -1.23174715       0.00000698       0.00000014      -0.00000024      -0.00923303      -0.00000311       0.00000435       0.01633727       0.16758870      -0.22243930      -0.00000102      -0.00000401       0.00002213       0.24922850       0.13161823      -0.25690841       0.00002061       0.26227070       0.12463071      -0.00000594      -0.00000027      -0.00000116      -0.30214224      -0.00000018       0.00000057       0.01828406      -0.00000660       0.00001084       0.14867095       0.12293809      -0.09287306       0.00001257       0.19936508       0.12648929       0.00000007       0.00000171      -0.00000039      -0.01526793      -0.14599208      -0.05166386       0.00000016      -0.00000333      -0.00000220      -0.06812771      -0.05111669       0.04280996       0.00000149       0.00000110      -0.00000124      -0.07839776       0.00000358      -0.00000650      -0.09855629       0.11449488       0.15934526      -0.00000230       0.01352189      -0.16686128       0.00001043       0.05423512      -0.03820069       0.00000307      -0.00115186      -0.00966331      -0.00000001      -0.09094559      -0.10727753       0.00000456       0.02782329       0.02415416      -0.00000094       0.00000140       0.00000440       0.06661808       0.03954585      -0.04696205       0.00000071       0.00004190      -0.00004973       0.00082544       0.01353395      -0.02021955       0.00000051       0.05749175       0.03690425       0.00000028      -0.00001106       0.00000358       0.08720454      -0.00000070       0.00000033       0.00603910       0.06206633      -0.00382978       0.00001505       0.00325967      -0.00116040       0.00000110      -0.03474246       0.05627525      -0.00000170      -0.00989519       0.01287362      -0.00000069       0.01524023      -0.01978951       0.00000121      -0.01040151       0.01321791      -0.00000087
H       -0.23117032      -2.09122648       0.00002883       0.00000160      -0.00000146      -0.10083381      -0.00000212      -0.00000281      -0.31356864       0.29843930      -0.13695535      -0.00001907      -0.00000332       0.00002146       0.20189117       0.13161165      -0.25690993       0.00001646       0.26639292       0.12732349      -0.00000494      -0.00000156      -0.00000491      -0.42507244      -0.00000404      -0.00001339      -0.46092315      -0.00002245       0.00000669       0.40859597       0.38165451       0.07589547       0.00002524       0.43622519       0.27931690       0.00000177      -0.00001008      -0.00000438       0.12476939       0.32998317       0.24392942      -0.00000037       0.00001315       0.00001284       0.11444621       0.29543610       0.25465887      -0.00000927       0.00000138       0.00000446       0.15024402      -0.00001978      -0.00001408       0.17756247       0.18647989       0.20179481      -0.00001051      -0.43823424      -0.43602967       0.00000258      -0.07133306      -0.09829992       0.00000167       0.03023229       0.00699931       0.00000197       0.44795246       0.27634825      -0.00002255      -0.11353140      -0.07232474       0.00000564      -0.00001157      -0.00002387      -0.74144767       0.32463142       0.19171584       0.00000742       0.00034882       0.00020606      -0.01951584       0.12125078       0.07063811      -0.00000541      -0.12631981      -0.07943893      -0.00000047       0.00000335      -0.00001053       0.04451319       0.00000101      -0.00000196       0.00328012       0.00989503       0.02265317       0.00000683      -0.00872374       0.01488923       0.00000021       0.50696671      -0.75174654       0.00001735       0.10840449      -0.15660925       0.00000344      -0.16761756       0.24684595      -0.00000529       0.11204245      -0.17035354       0.00000360
H       -1.53506277      -1.22624927      -0.85737781      -0.02303303       0.07152781       0.00719866      -0.17624020       0.20376276       0.14522469       0.16774672      -0.31496176       0.00000388      -0.01064561       0.03879589       0.25697373       0.13161377      -0.25689506       0.00002285       0.26227039       0.12170681      -0.00000323       0.04469295       0.14787579      -0.33509333      -0.42645717       0.20307413       0.33428655      -0.05010974      -0.27979909       0.18619182       0.12571172      -0.28365084      -0.00125232       0.20358506      -0.05481926      -0.00326009      -0.11391921      -0.19771224       0.07280009      -0.09943192      -0.44381123      -0.02122794      -0.18587509      -0.25240040       0.08167167      -0.00992895      -0.21165675      -0.02157166      -0.21678520      -0.25634650       0.09842120      -0.26165188      -0.30269846       0.11691153       0.10882198       0.17522959      -0.00415539      -0.04893354       0.11637381       0.03914240       0.02408742       0.20143801       0.01576263       0.03370464       0.01723672      -0.02063229       0.27006357       0.44143258      -0.21934998      -0.07500125      -0.09233370       0.06274402       0.13435837      -0.44453674      -0.07975441      -0.45897194       0.20084171       0.33819019       0.00142173      -0.01437724      -0.00094910      -0.16866345       0.07736011       0.12385643       0.13781233       0.10042534      -0.08918954      -0.43233465       0.00950821      -0.55276834      -0.03076054       0.00063043      -0.03898911      -0.38855873       0.00429256      -0.58670372      -0.01635797      -0.00041000      -0.02564220      -0.04081060       0.02629916      -0.02925833       0.00242432       0.00559240       0.00975410      -0.00472067      -0.00866414      -0.01711482       0.00515842       0.00579635       0.01473797
H       -1.53505026      -1.22620420       0.85740289       0.02303333      -0.07152980       0.00720195       0.17623580      -0.20375123       0.14523305       0.16775775      -0.31498371       0.00000686       0.01063771      -0.03875260       0.25697559       0.13161624      -0.25690146       0.00002016       0.26226953       0.12170837      -0.00000912      -0.04469391      -0.14787921      -0.33508519       0.42646250      -0.20305744       0.33429239       0.05009640       0.27984955       0.18617676       0.12571635      -0.28361181       0.00129065       0.20359152      -0.05480302       0.00327455       0.11392194       0.19773921       0.07278798      -0.09942002      -0.44378820       0.02125639       0.18587247       0.25238663       0.08165780      -0.00994001      -0.21167137       0.02157788       0.21678893       0.25635938       0.09840513       0.26165500       0.30273459       0.11688920       0.10881152       0.17520910       0.00414245      -0.04896213       0.11634832      -0.03915919       0.02407891       0.20142718      -0.01577508       0.03370743       0.01724197       0.02063293       0.27006106       0.44145546       0.21932032      -0.07500127      -0.09234110      -0.06273761      -0.13435838       0.44451594      -0.07977585      -0.45897434       0.20079749      -0.33819282      -0.00240649       0.01480353      -0.00167504      -0.16866530       0.07735731      -0.12385835       0.13780618       0.10042463       0.08918131       0.43246890      -0.00953741      -0.55298764       0.03076896      -0.00063221      -0.03900329      -0.38839960       0.00431917       0.58651413      -0.01634650      -0.00040897       0.02562826      -0.04081412       0.02630081       0.02926249       0.00242078       0.00559217      -0.00975009      -0.00471291      -0.00866355       0.01710598       0.00515262       0.00579598      -0.01473134
H        3.27418256       0.99024066      -0.00001961       0.00001254       0.00000851       0.52323539      -0.00000131      -0.00000267      -0.29312695      -0.14041746       0.36786117      -0.00001593      -0.00000545       0.00002569       0.29507452       0.13163423      -0.25694127       0.00002271       0.25253904       0.14327359      -0.00000640       0.00000126       0.00000457       0.26872609       0.00000050      -0.00000174       0.08015377       0.00000201       0.00004431       0.31679203       0.05729032      -0.39284134       0.00003586      -0.13440191       0.11337077      -0.00001605      -0.00000813      -0.00001928      -0.13589931       0.19650356       0.43324237      -0.00002227      -0.00000249      -0.00001024       0.05742695      -0.21622722      -0.51975074       0.00002985      -0.00003262      -0.00006827      -0.22401015       0.00002018       0.00004138       0.15075487       0.06847284       0.06091775       0.00000206      -0.13669139      -0.29661843       0.00001328       0.09589148       0.20387949      -0.00001435      -0.02095973      -0.06029168       0.00000007      -0.03451666      -0.13223796      -0.00000083      -0.10735463      -0.48483310      -0.00001161       0.00000021      -0.00000214       0.02014265       0.02580358       0.13996196       0.00085952       0.00003440       0.00025671      -0.73842668      -0.08581795      -0.39884144      -0.00016021      -0.07508123      -0.18413483      -0.00000932      -0.00000292       0.00000033      -0.00355338       0.00003578      -0.00000056       0.04759343       0.00227532       0.00049372      -0.00000092      -0.07167183      -0.00305770       0.00001821       0.01060288      -0.00387384       0.00000010       0.58732173      -0.16094955      -0.00001235       0.66308685      -0.18107917      -0.00001412       0.36928893      -0.09932017      -0.00000834
H        2.00242189       1.82195781       0.87795058      -0.38970035       0.25548151      -0.27186601       0.16878549      -0.20007444       0.14737525      -0.26629060       0.18782582       0.00001765       0.01003065      -0.03842018       0.34776801       0.13164083      -0.25692932       0.00002430       0.24855840       0.13758884      -0.00000610      -0.04637114      -0.14681771       0.34910521      -0.03932354       0.04548490      -0.02283457      -0.18613037      -0.19998300       0.24855723       0.31144170      -0.02932479       0.00065966      -0.33926892      -0.17215769      -0.00278925       0.14557211       0.17632194      -0.08047580      -0.12362475       0.00766069      -0.01350626      -0.06791210      -0.10147841       0.03297983       0.29101812       0.10162906       0.02731278       0.26701291       0.43337716      -0.14913693      -0.18076232      -0.30311621       0.10009753       0.29150040       0.25676395       0.01768002       0.27848046       0.14252928       0.03831266      -0.04590182       0.01001423      -0.03648165      -0.07086406      -0.04583906       0.02636839      -0.06835442      -0.10721110       0.06331540      -0.31662067      -0.41684712       0.23119345       0.01286135       0.00026374       0.00192454       0.13484118      -0.12842087       0.12170728      -0.46673629      -0.02279946      -0.07835063      -0.34318058       0.35780977      -0.32982506      -0.00419509       0.00137315       0.00449090      -0.01096643       0.02813717       0.03912881       0.14811459      -0.40570971      -0.55351962       0.00622564      -0.01742444      -0.02774605      -0.12568961       0.36306227       0.58069742      -0.00536172       0.01510332       0.02354325      -0.03514514       0.04493377       0.06170832      -0.03280182       0.03735052       0.04406343      -0.00323700      -0.02603458      -0.05164446
H        2.00237197       1.82194896      -0.87794464       0.38968091      -0.25548062      -0.27188155      -0.16877265       0.20006499       0.14738236      -0.26630908       0.18784216       0.00000009      -0.01004206       0.03846769       0.34776830       0.13163845      -0.25692296       0.00003087       0.24855897       0.13758713      -0.00000900       0.04636979       0.14681648       0.34910221       0.03932320      -0.04548397      -0.02283639       0.18607150       0.19998772       0.24854762       0.31148368      -0.02928780      -0.00062642      -0.33929479      -0.17218735       0.00277792      -0.14554871      -0.17630905      -0.08046630      -0.12366058       0.00761153       0.01349535       0.06792893       0.10147921       0.03297125       0.29107512       0.10171594      -0.02729764      -0.26693168      -0.43333772      -0.14912870       0.18071953       0.30309916       0.10009264       0.29153333       0.25682087      -0.01767720       0.27851221       0.14258290      -0.03831135      -0.04590944       0.00998680       0.03647474      -0.07086289      -0.04583262      -0.02636404      -0.06835308      -0.10721018      -0.06331219      -0.31661478      -0.41685389      -0.23118277      -0.01286713      -0.00026026       0.00192916       0.13374851      -0.12847331      -0.12152973       0.46720310       0.02235771      -0.07879047      -0.34295751       0.35782489       0.32980630      -0.00416307       0.00139010      -0.00448520       0.01096288      -0.02812162       0.03910378      -0.14804792       0.40543586      -0.55308054       0.00623228      -0.01743821       0.02776503      -0.12582386       0.36335062      -0.58109120      -0.00536490       0.01510911      -0.02355097      -0.03514875       0.04493546      -0.06171018      -0.03280208       0.03734692      -0.04405734      -0.00322888      -0.02604925       0.05166509
12
Properties=species:S:1:pos:R:3:xtb2_normal_mode_displacements_0:R:3:xtb2_normal_mode_displacements_1:R:3:xtb2_normal_mode_displacements_2:R:3:xtb2_normal_mode_displacements_3:R:3:xtb2_normal_mode_displacements_4:R:3:xtb2_normal_mode_displacements_5:R:3:xtb2_normal_mode_displacements_6:R:3:xtb2_normal_mode_displacements_7:R:3:xtb2_normal_mode_displacements_8:R:3:xtb2_normal_mode_displacements_9:R:3:xtb2_normal_mode_displacements_10:R:3:xtb2_normal_mode_displacements_11:R:3:xtb2_normal_mode_displacements_12:R:3:xtb2_normal_mode_displacements_13:R:3:xtb2_normal_mode_displacements_14:R:3:xtb2_normal_mode_displacements_15:R:3:xtb2_normal_mode_displacements_16:R:3:xtb2_normal_mode_displacements_17:R:3:xtb2_normal_mode_displacements_18:R:3:xtb2_normal_mode_displacements_19:R:3:xtb2_normal_mode_displacements_20:R:3:xtb2_normal_mode_displacements_21:R:3:xtb2_normal_mode_displacements_22:R:3:xtb2_normal_mode_displacements_23:R:3:xtb2_normal_mode_displacements_24:R:3:xtb2_normal_mode_displacements_25:R:3:xtb2_normal_mode_displacements_26:R:3:xtb2_normal_mode_displacements_27:R:3:xtb2_normal_mode_displacements_28:R:3:xtb2_normal_mode_displacements_29:R:3:xtb2_normal_mode_displacements_30:R:3:xtb2_normal_mode_displacements_31:R:3:xtb2_normal_mode_displacements_32:R:3:xtb2_normal_mode_displacements_33:R:3:xtb2_normal_mode_displacements_34:R:3:xtb2_normal_mode_displacements_35:R:3 butene=T reference=T _ConfigSet_loc=" / 0 / 0" xtb2_normal_mode_frequencies="-0.020805350599677645 -0.0012520287572930428 -0.0008057157555249398 -4.5646307594914854e-05 -1.544271636343004e-06 2.0070667760733657e-05 0.0007792852814774499 0.020007895212821186 0.030827178750387946 0.03379472539721994 0.06147046924481604 0.08694186489268312 0.11505838067939451 0.12427408663486034 0.12511644226890012 0.12691071213329774 0.13044988333222152 0.1391633835201524 0.14195157959406351 0.15814728268344924 0.161403301474211 0.17400433576408564 0.17465713361699353 0.18358617565523236 0.18451272219423798 0.18453214420220326 0.18474813708238022 0.21569178023426594 0.3710653957286146 0.37201378110443734 0.3729909202179395 0.3734662167474916 0.37645626122957077 0.3776743594254655 0.3781192902563234 0.379676400084026" pbc="F F F"
C        0.27207669       0.04344082      -0.00001925      -0.00000219       0.00000336       0.06748807      -0.00000559       0.00000916       0.12212985      -0.00614295      -0.09692342       0.00000606      -0.00000501       0.00002407       0.29206110       0.13163050      -0.25691768       0.00002379       0.25677989       0.12859307      -0.00000667       0.00000163       0.00000451      -0.05405953       0.00000299      -0.00000375      -0.09743338       0.00001026      -0.00001152      -0.17628007      -0.15989949       0.12211245      -0.00001533       0.01200567       0.17692842      -0.00000709       0.00000474      -0.00000819      -0.14139153      -0.03346491       0.08690673      -0.00000724       0.00000078      -0.00000096      -0.00122224       0.02641785      -0.04570419       0.00000106      -0.00000306       0.00000180       0.09531005      -0.00000429       0.00000765       0.10139995      -0.13752430      -0.17267510       0.00000252       0.02319795       0.20679016      -0.00001116      -0.08855670      -0.02362058      -0.00000150       0.03987610      -0.08167344       0.00000626       0.00648479       0.02268491      -0.00000070      -0.01422627       0.00480927      -0.00000080      -0.00000038      -0.00000073       0.01148138      -0.00519387      -0.00462566       0.00000003      -0.00000407      -0.00000610      -0.00033160       0.00415898       0.00502256      -0.00000046      -0.55546241      -0.07424367      -0.00001728      -0.00000071      -0.00000031       0.00179280      -0.00000007      -0.00000116      -0.00012193       0.00139831       0.00495002       0.00000006      -0.00092282       0.00483815      -0.00000038       0.01637363      -0.02591311       0.00000203      -0.02077876       0.02980516      -0.00000235       0.02835169      -0.04467337       0.00000347      -0.01735652       0.03406534      -0.00000244
C        1.08969268      -0.04796825       0.00001789       0.00000248      -0.00000404      -0.04758114       0.00000487      -0.00000777      -0.14330379      -0.00260990       0.09284680      -0.00000763      -0.00000435       0.00002238       0.27498941       0.13163092      -0.25692797       0.00002184       0.25689140       0.13459017      -0.00000618      -0.00000103      -0.00000460       0.00726094      -0.00000254       0.00000268       0.04453399       0.00001204      -0.00001492      -0.22198727      -0.15883473       0.12881301      -0.00001835      -0.01985896      -0.16863397       0.00000972      -0.00000683       0.00000684       0.14939235       0.04389036      -0.09101025       0.00000701       0.00000317      -0.00000415      -0.03581761       0.01362209      -0.00488053       0.00000802       0.00000432      -0.00000772      -0.09567610      -0.00000354       0.00000275       0.08222047      -0.13336065      -0.28197104       0.00001021       0.02611065      -0.13426829       0.00000769      -0.10191264      -0.01324020      -0.00000399      -0.02938487       0.08349719      -0.00000518       0.01089938      -0.00969461       0.00000117      -0.00933056      -0.01438009       0.00000074      -0.00000062       0.00000017       0.00060586       0.02338722       0.01169582      -0.00001147       0.00002412       0.00001731       0.01055505       0.00971860      -0.01258606       0.00000254       0.54379582       0.07123561       0.00001871       0.00000018       0.00000008       0.00022403       0.00000188      -0.00000098       0.00148631      -0.00126622       0.00038203      -0.00000002      -0.00611694       0.00606801      -0.00000014      -0.00118201      -0.00189184       0.00000006       0.02560914      -0.04094076       0.00000331      -0.00864247       0.00685988      -0.00000064      -0.03178962       0.05562476      -0.00000426
H       -0.51866714       0.91401226      -0.00009488      -0.00000799       0.00001294       0.24073037      -0.00001597       0.00002701       0.44309473      -0.14260435      -0.17165367       0.00002342      -0.00000633       0.00002689       0.34029384       0.13164507      -0.25690780       0.00002798       0.25246350       0.12622903      -0.00000768       0.00000521       0.00001637       0.08091855       0.00000958      -0.00001007      -0.23001709       0.00001094      -0.00000788      -0.13405564      -0.29191125       0.04257858      -0.00001480       0.15496007       0.24046056      -0.00000564      -0.00002502       0.00002685       0.55583124       0.20434738       0.21511290      -0.00001770      -0.00000401       0.00004071       0.59991421       0.32683170       0.12343428      -0.00002387       0.00001952      -0.00001364      -0.28563826       0.00000848      -0.00002303      -0.40478354      -0.19671369      -0.20921844       0.00000259       0.16774450       0.26476721      -0.00000327       0.60384886       0.35623080       0.00000292       0.57782630       0.22519915       0.00001200      -0.09406086      -0.03294611      -0.00000456      -0.00650655       0.00895070      -0.00000115       0.00000264      -0.00000174      -0.02891030      -0.01490400      -0.00968248      -0.00000381      -0.00001750      -0.00001322       0.00144163      -0.01658667      -0.00653431       0.00000042       0.11550566       0.34134069      -0.00001428      -0.00000065       0.00000129      -0.00120519      -0.00000607       0.00001240       0.00191578       0.02681777      -0.04941507       0.00000311       0.02596940      -0.05214566       0.00000450      -0.19482453       0.35551819      -0.00002604       0.22291874      -0.39554666       0.00002940      -0.31027083       0.55823993      -0.00004127       0.21747286      -0.39443643       0.00002913
H        1.86694363      -0.92443716       0.00009755       0.00000784      -0.00001563      -0.24023474       0.00001594      -0.00002628      -0.46365068       0.13404370       0.16680055      -0.00002494      -0.00000297       0.00001944       0.22671233       0.13163114      -0.25692585       0.00001765       0.26120454       0.13692367      -0.00000517      -0.00000457      -0.00001689      -0.12839147      -0.00000964       0.00001033       0.19526079       0.00001711      -0.00001739      -0.29244002      -0.28499698       0.05396827      -0.00002182      -0.14217064      -0.22123064       0.00000915       0.00002006      -0.00003705      -0.61807004       0.00398675      -0.11100080      -0.00001066      -0.00000379       0.00004175       0.61239598       0.29541506       0.14904564      -0.00004484       0.00000089      -0.00000079       0.02215083       0.00001379      -0.00002130      -0.36238215      -0.26130287      -0.34744879       0.00001759      -0.16359992      -0.21875292       0.00000853       0.48278358       0.30632025       0.00000288      -0.69820572      -0.29455875      -0.00001027       0.02592478      -0.00170746      -0.00000047       0.14231053       0.07013525      -0.00000169       0.00000177       0.00000092      -0.00802904      -0.04305025      -0.02800456      -0.00000805      -0.00005238      -0.00002959       0.00527918      -0.00992177      -0.02082881       0.00000470      -0.09364233      -0.31960744       0.00001265       0.00000102      -0.00000173       0.00073319      -0.00001375       0.00002477       0.00369220      -0.00147123       0.00050098      -0.00000003       0.05798142      -0.10653127       0.00000944       0.00263952       0.00228123       0.00000018      -0.29272474       0.53003730      -0.00004083       0.06111051      -0.10580323       0.00000794       0.37384828      -0.67477344       0.00005153
C        2.22674703       1.22481910       0.00000035       0.00000000       0.00000064      -0.00163317       0.00000376      -0.00000455      -0.03036321      -0.17854881       0.21668266      -0.00000111      -0.00000537       0.00002404       0.31873323       0.13163731      -0.25693466       0.00002510       0.25133789       0.13850348      -0.00000696      -0.00000009       0.00000014       0.25757433      -0.00000038       0.00000026       0.01732631      -0.00001027       0.00000881       0.15158778       0.13399870      -0.08703780       0.00001304      -0.19513550      -0.13125230      -0.00000206       0.00000013       0.00000124       0.01471269       0.11134166       0.06340881       0.00000288      -0.00000205       0.00000127      -0.03023449      -0.09497275       0.02562032      -0.00000832      -0.00000859       0.00000933       0.11557687       0.00000568      -0.00000408      -0.08465415       0.10623428       0.24745484      -0.00001057      -0.05345672       0.10850493      -0.00000744       0.04664189      -0.02488755       0.00000462       0.00622164       0.02293161      -0.00000181       0.01072908       0.02900301      -0.00000043       0.06860267       0.11099975       0.00000030       0.00000067      -0.00000013      -0.00200733      -0.02778977       0.00307268      -0.00007572      -0.00004478       0.00000457       0.06540240       0.05772947      -0.01541711       0.00001262      -0.05318765      -0.03068693      -0.00000054       0.00000055      -0.00000131      -0.00638645      -0.00000883       0.00002204       0.08727075      -0.00118803       0.00286338      -0.00000153       0.02733381      -0.05831576       0.00003092      -0.00000593      -0.00203408       0.00000061      -0.04197136       0.00514487       0.00000124      -0.04932291       0.00929947       0.00000061      -0.03079494       0.01285262      -0.00000109
C       -0.88335203      -1.21738207       0.00000709       0.00000014      -0.00000024      -0.00923303      -0.00000311       0.00000435       0.01633727       0.16758870      -0.22243930      -0.00000102      -0.00000401       0.00002213       0.24922850       0.13161823      -0.25690841       0.00002061       0.26227070       0.12463071      -0.00000594      -0.00000027      -0.00000116      -0.30214224      -0.00000018       0.00000057       0.01828406      -0.00000660       0.00001084       0.14867095       0.12293809      -0.09287306       0.00001257       0.19936508       0.12648929       0.00000007       0.00000171      -0.00000039      -0.01526793      -0.14599208      -0.05166386       0.00000016      -0.00000333      -0.00000220      -0.06812771      -0.05111669       0.04280996       0.00000149       0.00000110      -0.00000124      -0.07839776       0.00000358      -0.00000650      -0.09855629       0.11449488       0.15934526      -0.00000230       0.01352189      -0.16686128       0.00001043       0.05423512      -0.03820069       0.00000307      -0.00115186      -0.00966331      -0.00000001      -0.09094559      -0.10727753       0.00000456       0.02782329       0.02415416      -0.00000094       0.00000140       0.00000440       0.06661808       0.03954585      -0.04696205       0.00000071       0.00004190      -0.00004973       0.00082544       0.01353395      -0.02021955       0.00000051       0.05749175       0.03690425       0.00000028      -0.00001106       0.00000358       0.08720454      -0.00000070       0.00000033       0.00603910       0.06206633      -0.00382978       0.00001505       0.00325967      -0.00116040       0.00000110      -0.03474246       0.05627525      -0.00000170      -0.00989519       0.01287362      -0.00000069       0.01524023      -0.01978951       0.00000121      -0.01040151       0.01321791      -0.00000087
H       -0.24541472      -2.10018437       0.00002877       0.00000160      -0.00000146      -0.10083381      -0.00000212      -0.00000281      -0.31356864       0.29843930      -0.13695535      -0.00001907      -0.00000332       0.00002146       0.20189117       0.13161165      -0.25690993       0.00001646       0.26639292       0.12732349      -0.00000494      -0.00000156      -0.00000491      -0.42507244      -0.00000404      -0.00001339      -0.46092315      -0.00002245       0.00000669       0.40859597       0.38165451       0.07589547       0.00002524       0.43622519       0.27931690       0.00000177      -0.00001008      -0.00000438       0.12476939       0.32998317       0.24392942      -0.00000037       0.00001315       0.00001284       0.11444621       0.29543610       0.25465887      -0.00000927       0.00000138       0.00000446       0.15024402      -0.00001978      -0.00001408       0.17756247       0.18647989       0.20179481      -0.00001051      -0.43823424      -0.43602967       0.00000258      -0.07133306      -0.09829992       0.00000167       0.03023229       0.00699931       0.00000197       0.44795246       0.27634825      -0.00002255      -0.11353140      -0.07232474       0.00000564      -0.00001157      -0.00002387      -0.74144767       0.32463142       0.19171584       0.00000742       0.00034882       0.00020606      -0.01951584       0.12125078       0.07063811      -0.00000541      -0.12631981      -0.07943893      -0.00000047       0.00000335      -0.00001053       0.04451319       0.00000101      -0.00000196       0.00328012       0.00989503       0.02265317       0.00000683      -0.00872374       0.01488923       0.00000021       0.50696671      -0.75174654       0.00001735       0.10840449      -0.15660925       0.00000344      -0.16761756       0.24684595      -0.00000529       0.11204245      -0.17035354       0.00000360
H       -1.51952243      -1.21492485      -0.86743523      -0.02303303       0.07152781       0.00719866      -0.17624020       0.20376276       0.14522469       0.16774672      -0.31496176       0.00000388      -0.01064561       0.03879589       0.25697373       0.13161377      -0.25689506       0.00002285       0.26227039       0.12170681      -0.00000323       0.04469295       0.14787579      -0.33509333      -0.42645717       0.20307413       0.33428655      -0.05010974      -0.27979909       0.18619182       0.12571172      -0.28365084      -0.00125232       0.20358506      -0.05481926      -0.00326009      -0.11391921      -0.19771224       0.07280009      -0.09943192      -0.44381123      -0.02122794      -0.18587509      -0.25240040       0.08167167      -0.00992895      -0.21165675      -0.02157166      -0.21678520      -0.25634650       0.09842120      -0.26165188      -0.30269846       0.11691153       0.10882198       0.17522959      -0.00415539      -0.04893354       0.11637381       0.03914240       0.02408742       0.20143801       0.01576263       0.03370464       0.01723672      -0.02063229       0.27006357       0.44143258      -0.21934998      -0.07500125      -0.09233370       0.06274402       0.13435837      -0.44453674      -0.07975441      -0.45897194       0.20084171       0.33819019       0.00142173      -0.01437724      -0.00094910      -0.16866345       0.07736011       0.12385643       0.13781233       0.10042534      -0.08918954      -0.43233465       0.00950821      -0.55276834      -0.03076054       0.00063043      -0.03898911      -0.38855873       0.00429256      -0.58670372      -0.01635797      -0.00041000      -0.02564220      -0.04081060       0.02629916      -0.02925833       0.00242432       0.00559240       0.00975410      -0.00472067      -0.00866414      -0.01711482       0.00515842       0.00579635       0.01473797
H       -1.51951061      -1.21487987       0.86745938       0.02303333      -0.07152980       0.00720195       0.17623580      -0.20375123       0.14523305       0.16775775      -0.31498371       0.00000686       0.01063771      -0.03875260       0.25697559       0.13161624      -0.25690146       0.00002016       0.26226953       0.12170837      -0.00000912      -0.04469391      -0.14787921      -0.33508519       0.42646250      -0.20305744       0.33429239       0.05009640       0.27984955       0.18617676       0.12571635      -0.28361181       0.00129065       0.20359152      -0.05480302       0.00327455       0.11392194       0.19773921       0.07278798      -0.09942002      -0.44378820       0.02125639       0.18587247       0.25238663       0.08165780      -0.00994001      -0.21167137       0.02157788       0.21678893       0.25635938       0.09840513       0.26165500       0.30273459       0.11688920       0.10881152       0.17520910       0.00414245      -0.04896213       0.11634832      -0.03915919       0.02407891       0.20142718      -0.01577508       0.03370743       0.01724197       0.02063293       0.27006106       0.44145546       0.21932032      -0.07500127      -0.09234110      -0.06273761      -0.13435838       0.44451594      -0.07977585      -0.45897434       0.20079749      -0.33819282      -0.00240649       0.01480353      -0.00167504      -0.16866530       0.07735731      -0.12385835       0.13780618       0.10042463       0.08918131       0.43246890      -0.00953741      -0.55298764       0.03076896      -0.00063221      -0.03900329      -0.38839960       0.00431917       0.58651413      -0.01634650      -0.00040897       0.02562826      -0.04081412       0.02630081       0.02926249       0.00242078       0.00559217      -0.00975009      -0.00471291      -0.00866355       0.01710598       0.00515262       0.00579598      -0.01473134
H        3.26571606       0.96947678      -0.00002066       0.00001254       0.00000851       0.52323539      -0.00000131      -0.00000267      -0.29312695      -0.14041746       0.36786117      -0.00001593      -0.00000545       0.00002569       0.29507452       0.13163423      -0.25694127       0.00002271       0.25253904       0.14327359      -0.00000640       0.00000126       0.00000457       0.26872609       0.00000050      -0.00000174       0.08015377       0.00000201       0.00004431       0.31679203       0.05729032      -0.39284134       0.00003586      -0.13440191       0.11337077      -0.00001605      -0.00000813      -0.00001928      -0.13589931       0.19650356       0.43324237      -0.00002227      -0.00000249      -0.00001024       0.05742695      -0.21622722      -0.51975074       0.00002985      -0.00003262      -0.00006827      -0.22401015       0.00002018       0.00004138       0.15075487       0.06847284       0.06091775       0.00000206      -0.13669139      -0.29661843       0.00001328       0.09589148       0.20387949      -0.00001435      -0.02095973      -0.06029168       0.00000007      -0.03451666      -0.13223796      -0.00000083      -0.10735463      -0.48483310      -0.00001161       0.00000021      -0.00000214       0.02014265       0.02580358       0.13996196       0.00085952       0.00003440       0.00025671      -0.73842668      -0.08581795      -0.39884144      -0.00016021      -0.07508123      -0.18413483      -0.00000932      -0.00000292       0.00000033      -0.00355338       0.00003578      -0.00000056       0.04759343       0.00227532       0.00049372      -0.00000092      -0.07167183      -0.00305770       0.00001821       0.01060288      -0.00387384       0.00000010       0.58732173      -0.16094955      -0.00001235       0.66308685      -0.18107917      -0.00001412       0.36928893      -0.09932017      -0.00000834
H        2.00194883       1.82211265       0.87845699      -0.38970035       0.25548151      -0.27186601       0.16878549      -0.20007444       0.14737525      -0.26629060       0.18782582       0.00001765       0.01003065      -0.03842018       0.34776801       0.13164083      -0.25692932       0.00002430       0.24855840       0.13758884      -0.00000610      -0.04637114      -0.14681771       0.34910521      -0.03932354       0.04548490      -0.02283457      -0.18613037      -0.19998300       0.24855723       0.31144170      -0.02932479       0.00065966      -0.33926892      -0.17215769      -0.00278925       0.14557211       0.17632194      -0.08047580      -0.12362475       0.00766069      -0.01350626      -0.06791210      -0.10147841       0.03297983       0.29101812       0.10162906       0.02731278       0.26701291       0.43337716      -0.14913693      -0.18076232      -0.30311621       0.10009753       0.29150040       0.25676395       0.01768002       0.27848046       0.14252928       0.03831266      -0.04590182       0.01001423      -0.03648165      -0.07086406      -0.04583906       0.02636839      -0.06835442      -0.10721110       0.06331540      -0.31662067      -0.41684712       0.23119345       0.01286135       0.00026374       0.00192454       0.13484118      -0.12842087       0.12170728      -0.46673629      -0.02279946      -0.07835063      -0.34318058       0.35780977      -0.32982506      -0.00419509       0.00137315       0.00449090      -0.01096643       0.02813717       0.03912881       0.14811459      -0.40570971      -0.55351962       0.00622564      -0.01742444      -0.02774605      -0.12568961       0.36306227       0.58069742      -0.00536172       0.01510332       0.02354325      -0.03514514       0.04493377       0.06170832      -0.03280182       0.03735052       0.04406343      -0.00323700      -0.02603458      -0.05164446
H        2.00190252       1.82210572      -0.87845041       0.38968091      -0.25548062      -0.27188155      -0.16877265       0.20006499       0.14738236      -0.26630908       0.18784216       0.00000009      -0.01004206       0.03846769       0.34776830       0.13163845      -0.25692296       0.00003087       0.24855897       0.13758713      -0.00000900       0.04636979       0.14681648       0.34910221       0.03932320      -0.04548397      -0.02283639       0.18607150       0.19998772       0.24854762       0.31148368      -0.02928780      -0.00062642      -0.33929479      -0.17218735       0.00277792      -0.14554871      -0.17630905      -0.08046630      -0.12366058       0.00761153       0.01349535       0.06792893       0.10147921       0.03297125       0.29107512       0.10171594      -0.02729764      -0.26693168      -0.43333772      -0.14912870       0.18071953       0.30309916       0.10009264       0.29153333       0.25682087      -0.01767720       0.27851221       0.14258290      -0.03831135      -0.04590944       0.00998680       0.03647474      -0.07086289      -0.04583262      -0.02636404      -0.06835308      -0.10721018      -0.06331219      -0.31661478      -0.41685389      -0.23118277      -0.01286713      -0.00026026       0.00192916       0.13374851      -0.12847331      -0.12152973       0.46720310       0.02235771      -0.07879047      -0.34295751       0.35782489       0.32980630      -0.00416307       0.00139010      -0.00448520       0.01096288      -0.02812162       0.03910378      -0.14804792       0.40543586      -0.55308054       0.00623228      -0.01743821       0.02776503      -0.12582386       0.36335062      -0.58109120      -0.00536490       0.01510911      -0.02355097      -0.03514875       0.04493546      -0.06171018      -0.03280208       0.03734692      -0.04405734      -0.00322888      -0.02604925       0.05166509
