9
Properties=species:S:1:pos:R:3 propene=T reference=T pbc="F F F"
C       -0.00092761       0.01138203      -0.00000103
C        1.31833914       0.01223186      -0.00000419
H       -0.54536780       0.94743736      -0.00001169
H        1.89037620       0.92438405      -0.00001881
C       -0.84778387      -1.21684823       0.00001556
H        1.88463942      -0.90507852       0.00000778
H       -0.23399142      -2.11419043       0.00001729
H       -1.49182363      -1.22935930      -0.87911395
H       -1.49180994      -1.22934703       0.87915533
