24
Properties=species:S:1:pos:R:3:xtb2_normal_mode_displacements_0:R:3:xtb2_normal_mode_displacements_1:R:3:xtb2_normal_mode_displacements_2:R:3:xtb2_normal_mode_displacements_3:R:3:xtb2_normal_mode_displacements_4:R:3:xtb2_normal_mode_displacements_5:R:3:xtb2_normal_mode_displacements_6:R:3:xtb2_normal_mode_displacements_7:R:3:xtb2_normal_mode_displacements_8:R:3:xtb2_normal_mode_displacements_9:R:3:xtb2_normal_mode_displacements_10:R:3:xtb2_normal_mode_displacements_11:R:3:xtb2_normal_mode_displacements_12:R:3:xtb2_normal_mode_displacements_13:R:3:xtb2_normal_mode_displacements_14:R:3:xtb2_normal_mode_displacements_15:R:3:xtb2_normal_mode_displacements_16:R:3:xtb2_normal_mode_displacements_17:R:3:xtb2_normal_mode_displacements_18:R:3:xtb2_normal_mode_displacements_19:R:3:xtb2_normal_mode_displacements_20:R:3:xtb2_normal_mode_displacements_21:R:3:xtb2_normal_mode_displacements_22:R:3:xtb2_normal_mode_displacements_23:R:3:xtb2_normal_mode_displacements_24:R:3:xtb2_normal_mode_displacements_25:R:3:xtb2_normal_mode_displacements_26:R:3:xtb2_normal_mode_displacements_27:R:3:xtb2_normal_mode_displacements_28:R:3:xtb2_normal_mode_displacements_29:R:3:xtb2_normal_mode_displacements_30:R:3:xtb2_normal_mode_displacements_31:R:3:xtb2_normal_mode_displacements_32:R:3:xtb2_normal_mode_displacements_33:R:3:xtb2_normal_mode_displacements_34:R:3:xtb2_normal_mode_displacements_35:R:3:xtb2_normal_mode_displacements_36:R:3:xtb2_normal_mode_displacements_37:R:3:xtb2_normal_mode_displacements_38:R:3:xtb2_normal_mode_displacements_39:R:3:xtb2_normal_mode_displacements_40:R:3:xtb2_normal_mode_displacements_41:R:3:xtb2_normal_mode_displacements_42:R:3:xtb2_normal_mode_displacements_43:R:3:xtb2_normal_mode_displacements_44:R:3:xtb2_normal_mode_displacements_45:R:3:xtb2_normal_mode_displacements_46:R:3:xtb2_normal_mode_displacements_47:R:3:xtb2_normal_mode_displacements_48:R:3:xtb2_normal_mode_displacements_49:R:3:xtb2_normal_mode_displacements_50:R:3:xtb2_normal_mode_displacements_51:R:3:xtb2_normal_mode_displacements_52:R:3:xtb2_normal_mode_displacements_53:R:3:xtb2_normal_mode_displacements_54:R:3:xtb2_normal_mode_displacements_55:R:3:xtb2_normal_mode_displacements_56:R:3:xtb2_normal_mode_displacements_57:R:3:xtb2_normal_mode_displacements_58:R:3:xtb2_normal_mode_displacements_59:R:3:xtb2_normal_mode_displacements_60:R:3:xtb2_normal_mode_displacements_61:R:3:xtb2_normal_mode_displacements_62:R:3:xtb2_normal_mode_displacements_63:R:3:xtb2_normal_mode_displacements_64:R:3:xtb2_normal_mode_displacements_65:R:3:xtb2_normal_mode_displacements_66:R:3:xtb2_normal_mode_displacements_67:R:3:xtb2_normal_mode_displacements_68:R:3:xtb2_normal_mode_displacements_69:R:3:xtb2_normal_mode_displacements_70:R:3:xtb2_normal_mode_displacements_71:R:3 azobenzene=T reference=T _ConfigSet_loc=" / 0 / 0" xtb2_normal_mode_frequencies="-0.0006979559497735979 -0.00034230795003682447 -0.00023338777318552956 4.4185968857553534e-06 7.952377794105466e-06 3.514722708454037e-05 0.0029265897394645433 0.006393930259258532 0.007624125078555178 0.014221643855410766 0.021355155341901595 0.025485165982440338 0.03324066948799056 0.03980120270455152 0.045387919514883183 0.04552385063604851 0.05046010169316891 0.06203386812841575 0.06264362535640813 0.06408884507310453 0.07215431996985003 0.07294325461417865 0.07863054836568371 0.08097811149295375 0.08204247157703908 0.09315485267440404 0.09460697716422696 0.1040410632129552 0.10723304248512273 0.10727438674245163 0.11013110110380635 0.11135830235328434 0.11235554926290904 0.11462809628419145 0.1146950067047397 0.11520947992931639 0.11521769330749862 0.12249549423249845 0.12314927419952439 0.13278170979061427 0.1327965502497122 0.1373632155384367 0.13737848782547352 0.1439129686692475 0.14535268078782224 0.1462577066312917 0.14626802975834843 0.15126100807189855 0.15679287077352422 0.15772769696928818 0.1577567375993412 0.16426277827095037 0.1645207212748994 0.17717793062491022 0.17727243946885957 0.17885271077733725 0.18011828853662884 0.18725811318859936 0.19373569116832726 0.19428694885408246 0.19653117093819836 0.19782044263795093 0.3809950636336361 0.3810131686499937 0.38163649132719074 0.38164267724273443 0.3830497205150098 0.38309368522158804 0.38376165677916063 0.3837910217404362 0.38429008440388673 0.38431815284105875" pbc="F F F"
C       -4.46092549      -0.19592385      -0.52025504       0.00993670      -0.01331856      -0.01427632       0.00404484       0.18563639      -0.16660633       0.03301300      -0.17073080      -0.19941739       0.00998592       0.08590596       0.18132288       0.04067924      -0.19089184       0.07596732       0.19887855       0.04106957      -0.02564275      -0.00996804       0.04885158       0.03214922      -0.04282715       0.17042798       0.13261902      -0.01883386      -0.16122934       0.09982392      -0.02631666       0.11514585       0.08351669       0.13190171       0.11867793      -0.00508561       0.01958174      -0.14078486      -0.08322554      -0.15892025       0.12896891       0.00880791      -0.07769108      -0.08525961      -0.09588251       0.00417266      -0.00917684       0.00009990       0.00396117       0.00366883       0.00376508       0.00564299      -0.14668378      -0.01991426       0.11964354      -0.08461480      -0.04917552      -0.21024623      -0.05240596      -0.09227405      -0.00941784      -0.14080616      -0.04376067       0.02690533       0.02793277      -0.09195396       0.02185981       0.05882634      -0.07093213       0.20570475      -0.05809961       0.01265642      -0.00446133       0.09979803       0.03899686      -0.03197466      -0.06713819      -0.03284819       0.00381915      -0.04990464      -0.01690737       0.01735283       0.05440067       0.02539247      -0.15982559       0.00357840      -0.03274508       0.01078153      -0.00123080       0.00250073       0.00781197      -0.00334142       0.00093748       0.07184368      -0.07307004      -0.00846549       0.00728139      -0.07198440      -0.02997739      -0.04494997      -0.05797799      -0.04128625      -0.00473187      -0.00474627      -0.00302620      -0.00769284      -0.00345918      -0.00325450      -0.00620323       0.07170631       0.02636387      -0.00135797       0.03255741       0.01237560      -0.15486750      -0.00185852      -0.03257496       0.14458557       0.00252258       0.02079819       0.11355629       0.00201680       0.02633529       0.13627001       0.00288424       0.03028492      -0.00603604      -0.01693189       0.04074809      -0.01196341      -0.01944074       0.04567409       0.01137058      -0.00023811       0.00295974       0.00354951      -0.00081458       0.00206644       0.00436837       0.00851517      -0.02220554       0.00361248       0.00700531      -0.01820521      -0.02439611      -0.00243048      -0.00113587      -0.00907522       0.00695407      -0.02094754       0.00276870       0.01284826      -0.03307239       0.03501028       0.01402686      -0.02695706       0.03629446       0.10002085      -0.25444093      -0.05330714      -0.10661745       0.26707272       0.00200677       0.03109677      -0.08338872       0.01934111      -0.02847576       0.08183474      -0.08125059      -0.02572781       0.04772838       0.08978507       0.01677382      -0.02140974      -0.07758526       0.01908104      -0.07274685       0.02069102       0.11086997      -0.29118519      -0.04578129      -0.11312436       0.29010314       0.13044046       0.03009734      -0.04369446      -0.11814973      -0.01774725       0.01427910       0.01818490       0.00044519       0.00383339      -0.02930651      -0.00071414      -0.00618859       0.02458987       0.00033275       0.00597622      -0.00218653      -0.00002875      -0.00053437       0.04795242       0.00103445       0.01054061      -0.03921598      -0.00084913      -0.00861174       0.01763182       0.00069548       0.00303811      -0.01029661      -0.00043912      -0.00168275       0.01061392       0.00007723       0.00273995      -0.01676376      -0.00017566      -0.00418339
C       -3.55344535       0.25020817      -1.47043463       0.02624638      -0.16130216      -0.06817036       0.05623490       0.16901369      -0.12456611       0.05817362      -0.14390895      -0.16279717       0.01100268       0.08566201       0.18218446       0.04101920      -0.18931288       0.07703679       0.19872533       0.05137436      -0.02095254      -0.03379807       0.18631022       0.07321458      -0.07183503       0.03446871       0.04118332      -0.11805037      -0.07453991       0.04563589      -0.05198245      -0.03706746      -0.00997664       0.19923907       0.02442506       0.01501212       0.03146643      -0.01746871      -0.00837143      -0.08817310      -0.03741198       0.00092031      -0.00714315       0.03814455       0.03593906      -0.01499928       0.14107363       0.05248076       0.01423471      -0.13483864      -0.05283287      -0.05041129       0.08802116       0.02800967       0.04893575       0.10158777      -0.02759938      -0.07657901       0.00157617       0.08027520      -0.02742726       0.09639806       0.04398189      -0.14743138       0.07090771      -0.20175658      -0.15409651       0.04406717      -0.21195170       0.02393981       0.11236304      -0.09831309       0.01957753      -0.12582458      -0.04665981      -0.00814195       0.08871050       0.07007108      -0.00205861      -0.01944361      -0.00892180      -0.01445045       0.02755688      -0.02377780       0.08866970      -0.06604551       0.20961822      -0.00881193       0.04486906       0.00383765      -0.00674568       0.03726928       0.00526753      -0.04292327       0.01860363      -0.09079265       0.00171443      -0.00775022       0.00028389       0.03320873      -0.03124982       0.06469956      -0.00600189       0.07284913       0.03163368      -0.00389047       0.06305433       0.03139210       0.00528101      -0.05687975      -0.02262028       0.00197197      -0.02642234      -0.01201850      -0.01009571      -0.01741692       0.04203048       0.02119911       0.01567608      -0.02032944      -0.00325774      -0.03010902       0.08103132      -0.00322286      -0.03615267       0.09785889      -0.01480429       0.00779030      -0.02746378      -0.01867917       0.01291495      -0.04108841      -0.01364263      -0.02005455       0.04443178      -0.02172675      -0.01436302       0.02891854      -0.01098409      -0.00506799       0.00903087      -0.00753068      -0.00368040       0.00669240      -0.03383757       0.00839148      -0.02969884       0.01875844       0.01925126      -0.04433527       0.02107939       0.01236044      -0.02576988       0.02238318      -0.01014528       0.03248894      -0.21010070      -0.03770140       0.04346493       0.24852070       0.05266864      -0.07165289       0.14470421       0.00705357       0.01817353      -0.13413609      -0.01551620       0.00507844       0.00355947       0.03205797      -0.08413367      -0.06927504      -0.03666787       0.08092652       0.18443765       0.01908207      -0.00942605       0.00615284      -0.04784469       0.13460564       0.05371610       0.05671558      -0.14248807      -0.28340306      -0.04745051       0.04926941       0.26121012       0.03866489      -0.02960063      -0.01138566       0.01067420      -0.03207381       0.01782716      -0.01672253       0.05023308       0.01088593      -0.00919084       0.02789894      -0.00100336       0.00085289      -0.00258862       0.00415753      -0.00411456       0.01230025      -0.00363546       0.00359477      -0.01073907       0.00853367      -0.00758904       0.02291876      -0.00538967       0.00479535      -0.01449166       0.00140766      -0.00137026       0.00412042      -0.00277015       0.00265699      -0.00797492
C       -2.20594551       0.28494118      -1.18075857       0.02347251      -0.13710158      -0.05813821       0.04709684       0.10961475      -0.07495499       0.04395561      -0.08987537      -0.10315011       0.01074320       0.08525848       0.18344363       0.04060775      -0.18687165       0.07865812       0.19888856       0.04710006      -0.02120410      -0.02684086       0.14602142       0.04418402      -0.04362565      -0.09866131      -0.07063342      -0.10207571       0.05778800      -0.03879422      -0.02461019      -0.14694219      -0.11322137       0.18125321      -0.11906113       0.07091615       0.00230419       0.14627817       0.10276496      -0.07804236      -0.16162737       0.00329886      -0.03546830       0.01799695       0.16182903       0.01535346      -0.13338131      -0.05705842      -0.01307740       0.13850739       0.04425233      -0.01676587       0.06515643      -0.07388345       0.01071341      -0.04295598       0.03301375      -0.07064186      -0.07549994       0.15844887       0.00043243      -0.03736986      -0.04389933      -0.19671095      -0.06838633       0.09116466      -0.19747945      -0.03423374       0.07635774       0.00747543      -0.03784731      -0.11814476      -0.00811824       0.10102746       0.03809774       0.01430287      -0.07641320       0.00147566       0.00397321      -0.04474794      -0.02334059      -0.01480793       0.05643460      -0.00328542       0.07291206       0.00227915       0.08020380      -0.01073334       0.06557789       0.01786802      -0.00812720       0.05467210       0.01516913      -0.03476882       0.03349099      -0.01066330      -0.00410135       0.05293265       0.02156082       0.02153670       0.06576900       0.03078428       0.00751284      -0.05442389      -0.01827238       0.00854525      -0.04697545      -0.01731840      -0.00157899       0.01011933       0.00471138      -0.00154255       0.00421113       0.00286425       0.11946708       0.09248319      -0.21554472      -0.11984989      -0.08853533       0.22894490      -0.03864279      -0.00468617      -0.00693129      -0.04755351      -0.00607309      -0.00704226       0.04041977       0.01290003      -0.01519279       0.05047135       0.01697081      -0.02481603       0.00165145      -0.00190433       0.01384094       0.01065033      -0.00119125       0.01427979      -0.02208775      -0.00049593      -0.00275652      -0.01897125      -0.00056855      -0.00254014       0.03608727      -0.00354995       0.01728171       0.04966377      -0.00260963       0.01321856       0.04532843      -0.00544249       0.02224676      -0.00212905       0.00089890       0.00223795       0.20959683      -0.04655196       0.18244796      -0.20912074       0.04275877      -0.17430560      -0.08718091      -0.02688420       0.04862443       0.04002580       0.03106378      -0.07856335       0.11135487      -0.01485386       0.07245669      -0.07604624       0.02716906      -0.09426124      -0.11731033      -0.02161620       0.00375025      -0.12373761       0.04951641      -0.16716368       0.08323150      -0.05430846       0.16643319       0.20608568       0.00047225       0.05470036      -0.20664939       0.01111951      -0.07863015      -0.00567469      -0.00240421       0.00509289       0.00862639       0.00362793      -0.00773403       0.00779339       0.00356137      -0.00776683      -0.00078072      -0.00034839       0.00075369       0.01581125       0.00753807      -0.01652439      -0.01271094      -0.00605633       0.01334140      -0.04125618      -0.01879846       0.04062325       0.02690757       0.01229730      -0.02658617      -0.00319174      -0.00156280       0.00347819       0.00751312       0.00359573      -0.00788673
C       -1.74932075      -0.14080078       0.07312907       0.00400808       0.03693085       0.00802164      -0.01528476       0.06587282      -0.06708208       0.00450817      -0.06186565      -0.07927593       0.00944821       0.08509739       0.18385770       0.03986377      -0.18597649       0.07923238       0.19919177       0.03237370      -0.02630913       0.00368940      -0.02616231      -0.02523068       0.01027809      -0.10079837      -0.09261155       0.01320394       0.09649505      -0.06744961       0.02947961      -0.14165613      -0.13128995       0.07497517      -0.12781211       0.10239256      -0.01126600       0.08072216       0.08615303      -0.05844600      -0.03226000       0.04882840      -0.02736084      -0.12033652       0.10727411       0.00378003      -0.00036721      -0.00849199      -0.00425103       0.00136939      -0.00483099       0.02943767      -0.15198853      -0.15713538      -0.08128918      -0.18407750       0.00346602       0.17865354      -0.11105668       0.05589172       0.04118877      -0.17604356      -0.09302351      -0.01983108      -0.02933652       0.07874695      -0.01857137      -0.00556501       0.06652858      -0.21368049       0.03957016       0.00231856       0.00964544      -0.15674100      -0.05766265       0.02310883       0.13922825       0.05848748      -0.00864151       0.08709502       0.02969745       0.00262127      -0.11176288      -0.04340214      -0.04685027      -0.01881294      -0.01841725       0.00846727      -0.00168331       0.00235767       0.00559316       0.00148121       0.00303095       0.03859035       0.01955798       0.02407415       0.00119502      -0.01954702      -0.00674432      -0.03193363      -0.05231401      -0.03318957      -0.00647303       0.00012070      -0.00179379      -0.00814068      -0.00215111      -0.00330887       0.00010092       0.01981809       0.00827767       0.00068532       0.01107921       0.00483836      -0.01850904       0.00557674       0.00167156       0.01654890      -0.02599951      -0.02606332       0.00526942      -0.00024890       0.00327634       0.00993947       0.00018833       0.00332862      -0.01767325      -0.01175547       0.02083815       0.00105736      -0.01583540       0.03172857      -0.10173030      -0.00023431      -0.01603366      -0.03576858       0.00205087      -0.01192681      -0.00082779      -0.00321352       0.00876956      -0.00032904      -0.00231758       0.00691452       0.18345149       0.00625252       0.01352237       0.06806655      -0.03628772       0.10049518       0.01343707      -0.02813135       0.07175398      -0.18304800      -0.01513321       0.00067445       0.09298285       0.09561536      -0.22918892      -0.03781936      -0.10691983       0.26827415       0.00287962       0.05510016      -0.12782926       0.05793329      -0.04114959       0.12694144      -0.12265299      -0.03454592       0.04730346       0.16035007       0.01187659       0.00765278      -0.01157035       0.03143749      -0.04064215      -0.04879252      -0.09131226       0.21182421       0.04980615       0.10276835      -0.24387776      -0.11924262      -0.03098781       0.04861504       0.09965307       0.01497162      -0.01571428      -0.00031274      -0.00015568       0.00029439       0.00045297       0.00028384      -0.00051632       0.00003529       0.00055256      -0.00129584       0.00004130      -0.00004945       0.00009518       0.00122133       0.00003260       0.00028994      -0.00100622      -0.00004225      -0.00020978      -0.00127909      -0.00019000       0.00014263       0.00094727       0.00014151      -0.00010470      -0.00150218      -0.00003212      -0.00041734       0.00215741       0.00005382       0.00053485
N       -0.41426917      -0.21382695       0.41026629      -0.00065421       0.06816141       0.03337864      -0.03036861       0.00553395      -0.02051008      -0.00762772      -0.00775129      -0.01940484       0.00911621       0.08469843       0.18510174       0.03958896      -0.18353632       0.08085176       0.19926537       0.02770108      -0.02761604       0.00884213      -0.04649432      -0.04158532       0.02456651      -0.15185897      -0.15098413       0.02520987       0.14570931      -0.13861051       0.03479870      -0.20633395      -0.23672998       0.07616943      -0.02319976       0.07506486       0.02690236      -0.25191395      -0.19973286      -0.03517143       0.11337411       0.10454076       0.06196596      -0.16311598      -0.09665261       0.00021037       0.00077923      -0.00302765      -0.00794593       0.01473208       0.03026652      -0.01897269      -0.08667018       0.16869457      -0.07957482       0.16516031      -0.15211970       0.24727841       0.10346593      -0.03999726      -0.00109790       0.09664801       0.12049611      -0.00764358       0.02835042       0.01071429      -0.01916461      -0.06126933       0.07943146      -0.14951872       0.04711228      -0.10792775       0.00596468       0.01864650      -0.01221897       0.02258998      -0.02633451      -0.01009892      -0.00711533      -0.02413499       0.01067656       0.00990465       0.01405859       0.04407455      -0.24015481       0.00988561      -0.03480592       0.00636467       0.00214062       0.00586458       0.00252107      -0.00439021       0.00508655       0.11145532      -0.05490966       0.07855729      -0.00117339       0.00575271      -0.00294574      -0.08995797       0.04832127      -0.04926898       0.00107595      -0.00103332      -0.00310697      -0.00386754       0.00321708      -0.00325836       0.00121088      -0.00026858       0.00049120       0.00251426      -0.00214611       0.00080874       0.06972870      -0.00339498       0.01360668      -0.09419890       0.05793938      -0.06917858      -0.00116228       0.00007201       0.00053192      -0.00359614       0.00122141      -0.00228131      -0.00855526      -0.00029583      -0.00326846      -0.00464761       0.00475010      -0.00450220       0.04637504      -0.01836189       0.03159871       0.02981979      -0.00053305       0.00317285       0.00371572       0.00136252       0.00101840      -0.00141935      -0.00128903       0.00205236      -0.06400660       0.03336360      -0.05067204      -0.05366720       0.00678723      -0.01638792      -0.03430135       0.00340883      -0.01661622       0.11691798       0.00201740       0.01087861      -0.03666040      -0.00095042       0.00280267      -0.04039739       0.01511124      -0.02893150       0.00079367      -0.01039584       0.01174479      -0.08904913      -0.05057292       0.02524875       0.02099921       0.02215625      -0.02119862      -0.04813554      -0.00115422      -0.00245587      -0.28238069      -0.29545639       0.25445359       0.01491277       0.00636588      -0.00315596      -0.02170767      -0.04660165       0.05048029       0.00106305       0.00308106      -0.00602692       0.15025158       0.11799214      -0.09562623      -0.00002624       0.00003204      -0.00002398       0.00020854      -0.00004033       0.00011117       0.00001945      -0.00007153       0.00013534       0.00000471       0.00002753       0.00002454      -0.00001781      -0.00000644      -0.00010593      -0.00017396      -0.00016778       0.00013507      -0.00015874      -0.00003607       0.00005499       0.00020182       0.00029679      -0.00022411       0.00009149       0.00006079       0.00004247       0.00020044       0.00011168      -0.00014335
N        0.38423180       0.54031682      -0.21991124       0.01604192      -0.03279797      -0.06623551       0.02255977      -0.01337201       0.02395190      -0.00880997       0.01774747       0.00961992       0.00991167       0.08448344       0.18585068       0.03898821      -0.18215342       0.08174527       0.19961507       0.03378220      -0.01989996       0.00236310      -0.04053487      -0.04946322       0.01352208      -0.14656904      -0.15706714       0.02512017       0.14636274      -0.13793100      -0.02119440       0.23060545       0.21522654      -0.08166552       0.06606930      -0.03064477      -0.02972640       0.19084343       0.25839160       0.00743611       0.10328339       0.11961017      -0.02871211      -0.09670358      -0.17214458       0.00010876      -0.00260951       0.00090963      -0.00217490      -0.03042545      -0.01640525      -0.00790790      -0.17316167       0.07920192      -0.07736698       0.14794899      -0.16991889       0.25101199       0.07434558      -0.07012191      -0.02610770       0.11560399       0.09908490       0.00271190       0.01030868       0.02940279      -0.01627796      -0.08366232       0.05627366       0.15506406      -0.09062159       0.06294766       0.00669612       0.01361424      -0.01733630      -0.01769616      -0.01168172      -0.02928730      -0.00856146      -0.01259523       0.02270008      -0.01709716       0.04186794       0.01389510      -0.23961907       0.00547774      -0.03939792       0.00670734      -0.00401661      -0.00222909      -0.00379994       0.00568868      -0.00422921      -0.11293165       0.06651005      -0.06658392      -0.00045883       0.00282709      -0.00554877       0.08886194      -0.03982906       0.05808578       0.00092807       0.00286460       0.00159522       0.00374876      -0.00318114       0.00345564      -0.00069777       0.00015158      -0.00136008      -0.00252331       0.00064754      -0.00205565       0.06989154      -0.00504619       0.01183078       0.09440805      -0.05944217       0.06762358      -0.00175855      -0.00029264      -0.00054056       0.00344248      -0.00196646       0.00154493       0.00935676      -0.00262839       0.00129682      -0.00353286       0.00382885      -0.00508587      -0.04749139       0.02639886      -0.02328484       0.02955532       0.00056625       0.00416183      -0.00403695       0.00003185       0.00110946      -0.00053217      -0.00228072       0.00080537       0.06535123      -0.04378662       0.03990429      -0.05424349       0.01000635      -0.01314686       0.03130321      -0.01247736       0.00682599       0.11877467       0.00286751       0.01299688      -0.03612177      -0.00714676      -0.00391661       0.04130418      -0.02441953       0.01933607       0.00221754      -0.01144241       0.00957851       0.09072700       0.03822654      -0.03831393      -0.02067244      -0.02454621       0.01878523      -0.04767307      -0.00343375      -0.00498138       0.28189993       0.29923109      -0.25055019       0.01502398       0.00509159      -0.00423647       0.02072217       0.05466931      -0.04216086       0.00071182       0.00629137      -0.00281039      -0.15022974      -0.11815484       0.09545328      -0.00011314       0.00005858      -0.00005939      -0.00018343       0.00006927      -0.00004356      -0.00001755       0.00004691       0.00001452      -0.00002185       0.00012792      -0.00007311      -0.00006612       0.00006801       0.00003559       0.00016369       0.00017900      -0.00013692      -0.00005939       0.00003372      -0.00009083      -0.00025113      -0.00026772       0.00024709       0.00002802      -0.00008748      -0.00001665      -0.00021755      -0.00015035       0.00009291
C        1.73214616       0.36678967       0.01328538       0.01123731      -0.01671330      -0.02689118       0.00724149      -0.07272890       0.06825111      -0.01240414       0.07179860       0.07048002       0.00964658       0.08410810       0.18711201       0.03901948      -0.17969915       0.08337820       0.19957195       0.03023891      -0.02226563       0.00279544      -0.02437250      -0.02761598       0.01394750      -0.08900626      -0.10332904       0.01629732       0.07238802      -0.09241982      -0.00509670       0.12805422       0.14758568      -0.07109958       0.09749052      -0.13376868       0.00979313      -0.08352238      -0.08356200       0.05528405       0.05692237      -0.02333029       0.02807817       0.11472989      -0.11305020      -0.00253264      -0.00892695      -0.00102973      -0.00466611       0.00420182      -0.00180335      -0.00961500       0.15308527       0.15844454      -0.10215711      -0.02105131       0.17210706       0.16933457      -0.03815271       0.13126987      -0.00716810      -0.09000408      -0.18227877       0.01314103       0.08169197      -0.02453135      -0.01048708      -0.06855550       0.00142950       0.20518642       0.02685575       0.06628742      -0.01688744       0.05175716       0.15786752      -0.04728500       0.04948332       0.13695581       0.00588742      -0.02676825      -0.08784904       0.01665907      -0.03881627      -0.11256987      -0.05077924       0.01174178       0.01316668       0.00725232      -0.00096770       0.00278529      -0.00742629       0.00247061       0.00037199      -0.04344543       0.01834001       0.01514452      -0.00191910       0.00593500       0.01958723       0.04207499      -0.02684509      -0.04875627      -0.00571948       0.00078294      -0.00096192       0.00930425      -0.00230041      -0.00116849       0.00081809      -0.00257671      -0.00723374      -0.00433121       0.00811954       0.02152628      -0.01733549      -0.00371319      -0.00790172      -0.00980300      -0.02682449      -0.02853770       0.00734916      -0.00298968       0.00101623      -0.00905423       0.00160816      -0.00083780       0.01571781       0.02679578      -0.01053010       0.00500772      -0.02908083       0.01390620       0.10229432      -0.00337200       0.01225923      -0.03618721       0.00744972      -0.00620883       0.00003911       0.00734753      -0.00239283       0.00038391      -0.00865216       0.00262921      -0.18306217      -0.00931589      -0.01675032       0.07536410      -0.09315758       0.04216630      -0.01248675       0.07099672      -0.02727105      -0.18291920      -0.01938510      -0.00994114       0.07404117       0.24073742      -0.07645609       0.01687508       0.27706038      -0.09493313      -0.00786518       0.13077193      -0.05151010      -0.06828448       0.11867930      -0.04420410       0.11887411       0.06375166      -0.01761239       0.16021529       0.01280801       0.00830228       0.01265758      -0.04016493       0.03158369      -0.03225026      -0.21910427       0.07863966      -0.03073311      -0.25281708       0.08951826      -0.11498270      -0.06422316       0.01437419      -0.09796617      -0.02848857       0.00180769      -0.00043483      -0.00056357       0.00019157      -0.00025149      -0.00039048       0.00014901      -0.00003280      -0.00015086       0.00004282       0.00008491      -0.00129819       0.00050833       0.00102131      -0.00012164       0.00009881       0.00124274      -0.00011242       0.00010260      -0.00078455      -0.00019554       0.00001547      -0.00134711      -0.00033405       0.00002723      -0.00220694       0.00029744      -0.00020789      -0.00153923       0.00016387      -0.00014161
C        2.28850690      -0.83817381       0.46107862      -0.00897358       0.03938271       0.14920767      -0.05748150      -0.10488627       0.06214398       0.01458028       0.09701317       0.10480269       0.00889542       0.08393164       0.18756401       0.04066134      -0.17866484       0.08412889       0.19880579       0.02475445      -0.03608812       0.00247865       0.04191659       0.15161961       0.06420153      -0.06062660      -0.09394749      -0.09817353       0.02813134      -0.06981556      -0.05680184       0.10319387       0.14540222      -0.17273600       0.05288234      -0.13944671       0.03339688      -0.09557873      -0.14727837       0.09623765       0.01954511      -0.15030502       0.01215925       0.16408203       0.02654203       0.00834554      -0.05233167      -0.13360052       0.00985486      -0.04049790      -0.14212211      -0.01788558       0.07388362      -0.06484127       0.00947527      -0.03321302       0.04309489      -0.05869998      -0.16895075       0.06178719       0.00975738      -0.04198685      -0.03823452       0.19030049       0.11728412      -0.04048492      -0.18902687      -0.10147363       0.00694095       0.01231167      -0.11644386      -0.04147443       0.00924352      -0.03463909      -0.10203468      -0.00489180       0.00279449      -0.07774258      -0.00457850       0.02178539       0.04528304       0.00804423      -0.00371246       0.05789951       0.08224709      -0.07049731       0.00491967      -0.00035924      -0.01369877      -0.05626151      -0.00057097       0.01634518       0.06621290       0.03149074      -0.00773892       0.03725130       0.00506143      -0.01962593      -0.05349104      -0.03318240       0.02523270       0.06345778      -0.00164541       0.01515206       0.05055221      -0.00028841      -0.01782244      -0.05327992       0.00065428      -0.00132105      -0.00453701       0.00027689       0.00505973       0.01008029       0.10156298       0.23216037      -0.07095033       0.09981383       0.24548736      -0.06669044      -0.04764154       0.00210273      -0.00003113       0.04037796      -0.00057306      -0.00019161      -0.04472938      -0.02397260       0.00835174       0.04376533       0.02889778      -0.00889549      -0.00321344       0.01363883      -0.00173536       0.01211501      -0.01288660       0.00214876       0.01785534       0.00003065       0.00183010      -0.02314802       0.00012909      -0.00218356      -0.03730752       0.01287123      -0.00765537       0.05045711      -0.00720011       0.00860892      -0.04644893       0.01675247      -0.01049583      -0.00458738      -0.00139025      -0.00187043       0.22222952      -0.15610950       0.06761759       0.22456193      -0.15023876       0.06500036      -0.08303664      -0.06127790       0.01472487      -0.03198037      -0.08341604       0.02355858      -0.11714224       0.05859532      -0.02694311      -0.08355296       0.08515338      -0.03414119       0.11767966       0.01895963      -0.00643227      -0.13670083       0.15219139      -0.06033436      -0.09688168       0.15752389      -0.06031359       0.20975933      -0.02887007       0.02424853       0.21208291      -0.05307387       0.03523090      -0.00809174      -0.00903774       0.00235865      -0.00498191      -0.00556038       0.00143570      -0.00058321      -0.00074916       0.00020028      -0.00693174      -0.00857963       0.00228222       0.01166116       0.01511114      -0.00409258       0.01381172       0.01798160      -0.00484538      -0.02500769      -0.03051091       0.00817001      -0.03764147      -0.04607609       0.01235285      -0.00542966      -0.00716394       0.00193630      -0.00565850      -0.00728815       0.00197422
C        3.65586953      -0.95864992       0.59022231      -0.01189547       0.04006285       0.18075302      -0.06693541      -0.16317441       0.10783833       0.01358182       0.15102660       0.16583537       0.00874286       0.08354255       0.18882588       0.04072403      -0.17618376       0.08577075       0.19876319       0.02222707      -0.03798159       0.00062517       0.06983099       0.19390055       0.06149590       0.04835398       0.04418251      -0.11941850      -0.06285787       0.05740974      -0.05718111       0.00186422       0.03029848      -0.20095103      -0.01056326      -0.00069274       0.02793397       0.01140745       0.02150420       0.09127014       0.01328496      -0.02587236      -0.00221252       0.03492320       0.03962221      -0.00906635       0.04730334       0.14111350      -0.00937511       0.04924342       0.13897780      -0.03526432      -0.03029469      -0.09438734       0.05713559       0.03757667      -0.09379659      -0.06500603      -0.08890343      -0.01332730       0.00961500       0.04298719       0.10024196       0.16187818      -0.18477467       0.08378593      -0.17328401       0.19320012      -0.05783060      -0.02483386      -0.10514770       0.10576607      -0.00207532       0.04326333       0.12827874      -0.01177965       0.06688200       0.09102765      -0.00559585       0.00787690       0.01916994       0.01383548      -0.02290606       0.02862004       0.10579526      -0.19972888       0.07132419      -0.00239200      -0.00220133      -0.03851824       0.00183592       0.00493395       0.04522640       0.05148514      -0.08551605       0.02160288       0.00062033      -0.00014356       0.00772295      -0.03707446       0.06139645      -0.03345130       0.00624726      -0.02617206      -0.06751639      -0.00854011       0.03170676       0.07090737      -0.00149575       0.00775778       0.02439245       0.00518351      -0.02202916      -0.05833671      -0.00672618      -0.04363179       0.01488965      -0.02021099      -0.02341950       0.01232598       0.00419539      -0.09868706       0.03288249      -0.00409935       0.08226826      -0.02733873       0.01949167      -0.03011981       0.01047360      -0.01990047       0.03587727      -0.01303111       0.01031272       0.04664602      -0.01703407      -0.01946831      -0.03182866       0.01069667       0.00857099       0.00863563      -0.00278776      -0.00892687      -0.00963475       0.00314258       0.03599615      -0.02568658       0.01185967       0.01534015       0.04722804      -0.01561190      -0.01977042      -0.02745426       0.00844677       0.02370385      -0.03162167       0.01259209      -0.20421940      -0.06970474       0.00946651      -0.24366096      -0.10429007       0.01891571       0.14732335       0.00055668       0.01083895       0.13142203       0.02228922       0.00157929       0.00363973      -0.08515942       0.02918080      -0.06223810      -0.09027813       0.02549217      -0.18265361      -0.03272675      -0.00474028       0.01741966      -0.13430096       0.04462560      -0.04157168      -0.15061373       0.04587498      -0.27845486      -0.08562922       0.00982467      -0.25818421      -0.06304167       0.00442992      -0.02210059       0.04879207      -0.01771909      -0.01402561       0.03097224      -0.01125041      -0.00119341       0.00240936      -0.00088298      -0.01281490       0.02602072      -0.00952475       0.00420324      -0.00967488       0.00350009       0.00543319      -0.01248995       0.00452270       0.00682090      -0.01443839       0.00526520       0.00995574      -0.02109307       0.00768541       0.00291738      -0.00660754       0.00238743       0.00266811      -0.00597957       0.00216767
C        4.48323488       0.11338533       0.28756627       0.00508912      -0.01325421       0.03832614      -0.01272275      -0.19030662       0.15993791      -0.01463683       0.18058795       0.19342201       0.00932283       0.08332573       0.18964880       0.03915010      -0.17470538       0.08668524       0.19948895       0.02499583      -0.02618505      -0.00040006       0.03103101       0.05140769       0.00444321       0.12992024       0.17745671      -0.02564792      -0.10774430       0.15517663      -0.00126315      -0.08144782      -0.11974028      -0.14375579      -0.02603348       0.10097578      -0.00842832       0.07903469       0.14406512       0.13947938       0.02288608       0.14828540       0.09911009      -0.08200784      -0.07715931      -0.00306014       0.00001234      -0.00957446       0.00478570      -0.00309874      -0.00337461      -0.01498385       0.01436204       0.14666001       0.10112833       0.05992655       0.10035256      -0.22509073       0.06352078       0.02760223       0.03216104      -0.03642464      -0.13959362      -0.01825354      -0.09558190       0.02188219       0.01971475       0.07552563      -0.05377820      -0.19695774      -0.01027394      -0.08332240       0.01264165      -0.03501333      -0.10040714       0.04389727      -0.02591611      -0.06354060      -0.00442637       0.01510067       0.05026063      -0.02699547       0.02084595       0.05258973      -0.16104687       0.01300107      -0.02300433       0.00936088      -0.00117140       0.00173300      -0.00916042       0.00031702      -0.00463083      -0.06069156      -0.01412082      -0.08162556      -0.00524217       0.02759040       0.07309839       0.05660294      -0.03313718      -0.05315934      -0.00479635       0.00206061       0.00411444       0.00893429      -0.00243748      -0.00323600       0.00157761      -0.01019852      -0.03154021      -0.00718263       0.02430274       0.07312301      -0.15675718       0.01320448      -0.01698267      -0.14530851       0.00276524      -0.01532687       0.13874283      -0.01438741       0.01407103      -0.11495441       0.01083170      -0.01131439       0.00390905       0.04695985      -0.01676192      -0.00810300      -0.04240569       0.01474646      -0.01156079       0.00155509      -0.00161153       0.00363282      -0.00157837       0.00118293      -0.00201356      -0.01866502       0.00597241       0.00252918       0.02308629      -0.00740866       0.02447138       0.00195916       0.00066327      -0.01074206       0.02010756      -0.00756094      -0.00123401      -0.03458901       0.01177619       0.03272856       0.02946937      -0.00803155       0.01547414       0.25899195      -0.08736419       0.03178344       0.27790741      -0.09277115      -0.00536173       0.08508203      -0.02875226      -0.02601857       0.07873929      -0.02817903       0.07702272       0.05857399      -0.01403291       0.08771876       0.03309175      -0.00472708       0.08322575      -0.06340039       0.02689055      -0.00303822       0.29503865      -0.09951852       0.02208063       0.29882355      -0.09916310       0.12650494       0.06071349      -0.01220126       0.11669337       0.02946867      -0.00225135       0.02882791      -0.00242353       0.00276211       0.01882299      -0.00158916       0.00180536      -0.00244177       0.00027879      -0.00025642      -0.02549338       0.00293820      -0.00268361       0.04019390      -0.00373244       0.00395230       0.04854140      -0.00449668       0.00476948       0.01187410      -0.00056069       0.00098310       0.01601061      -0.00061773       0.00128074       0.01644742      -0.00207201       0.00180046       0.01257009      -0.00149006       0.00134468
C        3.93864896       1.30996685      -0.15627353       0.02513678      -0.06890912      -0.13638056       0.05152294      -0.15868757       0.16635759      -0.04147398       0.15587548       0.15970743       0.01006661       0.08350254       0.18920683       0.03751710      -0.17572342       0.08595087       0.20023910       0.03043622      -0.01245191       0.00080833      -0.03653735      -0.13090766      -0.04658058       0.09801998       0.15507797       0.08901888      -0.06968078       0.11854025       0.05086818      -0.04452353      -0.07932381      -0.04446913      -0.01572791       0.00537829      -0.01782994       0.00130804      -0.04370177       0.15566495      -0.03614298      -0.03177754       0.13372599      -0.01364994       0.06358025       0.00199112      -0.04362908      -0.13282626       0.01170848      -0.04822941      -0.13452200       0.03819850      -0.03653091      -0.07879644       0.01589772      -0.05614591      -0.07199456      -0.04905190       0.10333178      -0.09544609      -0.01076984       0.03275534       0.11347537      -0.20404667      -0.14119209       0.04340351       0.21132890       0.14990144      -0.01317888       0.08377584       0.18135171       0.01701757      -0.01914288       0.03720391       0.13043932      -0.02156852       0.00526490       0.11139633       0.00758475       0.00949206       0.01790552       0.01420058       0.02674475       0.00991919       0.15777962       0.18065393      -0.04134448      -0.00885693       0.00404115       0.03759195       0.00800619      -0.00758852      -0.04500937       0.04628017       0.05633330      -0.02394949      -0.00032066       0.00302074       0.00660542      -0.03517668      -0.04623574       0.00968804      -0.00297384       0.02296884       0.05921796       0.00097358      -0.02880369      -0.06618303      -0.00222388       0.01037146       0.03153439       0.00676999      -0.01992698      -0.06879085       0.00407474       0.04484938      -0.01654317       0.00776107       0.04490912      -0.01573175       0.02995101       0.09735335      -0.03033262      -0.02378850      -0.07948436       0.02477763      -0.03409047      -0.03303048       0.00834454       0.02606978       0.02299405      -0.00568110      -0.00333291      -0.05253353       0.01789220      -0.00898439       0.03562909      -0.01308885      -0.00206019       0.00568072      -0.00187252       0.00432427      -0.00851616       0.00302557       0.04648588       0.03100046      -0.00692440      -0.03309063       0.01249722      -0.00672291       0.01413488      -0.02438949       0.00917251       0.02999328       0.05657281      -0.01724172       0.16372254      -0.15086087       0.06404344       0.20294303      -0.15462936       0.06799169      -0.13015358      -0.00844876      -0.00622992      -0.10259676      -0.03687238       0.00447874      -0.10526377       0.06694674      -0.02975921      -0.07595275       0.07462889      -0.03028456      -0.10048949       0.09474467      -0.04096620       0.09534669      -0.19341853       0.07115833       0.05875477      -0.17980012       0.06399545      -0.23538076       0.05221682      -0.03514671      -0.23528971       0.06675295      -0.03935429      -0.00788303      -0.01125000       0.00323243      -0.00478550      -0.00687290       0.00197470       0.00365556       0.00465430      -0.00131896       0.03974639       0.05053662      -0.01432214       0.01202570       0.01556248      -0.00443459       0.01457921       0.01890814      -0.00538973       0.00077077       0.00114007      -0.00034522      -0.00032352      -0.00013652      -0.00000199       0.01629513       0.02068523      -0.00579277       0.01160021       0.01473202      -0.00412567
C        2.57339677       1.43778752      -0.30604442       0.02840215      -0.07257537      -0.16911256       0.06199792      -0.10004021       0.12089729      -0.03983972       0.10177379       0.09869342       0.01024117       0.08389138       0.18794782       0.03746479      -0.17820267       0.08431088       0.20028152       0.03319062      -0.01050066       0.00156046      -0.06509841      -0.16605882      -0.04108468      -0.01292439       0.00958763       0.10928091       0.02180957      -0.00555691       0.03986693       0.07178249       0.08956553      -0.02540885       0.05706033      -0.12071520      -0.01673768      -0.08314710      -0.13876720       0.15443651      -0.02571729      -0.11511958       0.12524298       0.10943596       0.06223769      -0.01780632       0.04567145       0.14309235      -0.00824710       0.05228773       0.13981163       0.04133611       0.06302032      -0.07912460      -0.01016169      -0.13763185       0.09103764      -0.02693425       0.05878773       0.01057190      -0.00099185      -0.05984281      -0.04534151      -0.15133045       0.15609923      -0.07956712       0.16169213      -0.14034174       0.03990330       0.10062891       0.15645907      -0.12172194       0.00243278      -0.04531310      -0.10250387      -0.00890975      -0.05721633      -0.06031600       0.00156783       0.02458391       0.04694421       0.00820425       0.02989472       0.04912416       0.09673242       0.05293450       0.00401634      -0.00840783       0.01649529       0.05320141       0.00846877      -0.02025112      -0.06195935       0.02260160      -0.01383809       0.06359622       0.00417884      -0.02356704      -0.05516514      -0.02354962       0.05871978       0.03897645       0.00568772      -0.01588079      -0.04547540      -0.00774772       0.02126082       0.05174800       0.00052809      -0.00389355      -0.01009470       0.00027510       0.00363288       0.01869328       0.04400281      -0.24040936       0.09007311       0.04266363      -0.20852455       0.08536647      -0.04759626       0.01076882      -0.00881294       0.03903625      -0.00735358       0.00675924       0.04073139      -0.04185513       0.01908412      -0.03475155       0.03400178      -0.01638019      -0.00321420      -0.01813469       0.00294460       0.00795191       0.00752184      -0.00028252      -0.02131410       0.00210738      -0.00226152       0.02471785      -0.00306602       0.00276372      -0.04584301       0.00619423      -0.00250686      -0.00897932       0.00810761      -0.00554787       0.04543437       0.00587495       0.00189701      -0.09113399      -0.01864884       0.00291205      -0.19354863      -0.09254553       0.01929119      -0.23255839      -0.10371969       0.02149402       0.11072569      -0.04332009       0.02442625       0.13392798      -0.00972551       0.01509398      -0.03360991      -0.09404834       0.02958468      -0.07024505      -0.08491264       0.02289456       0.00231861      -0.02739547       0.01164897       0.05969867       0.12888255      -0.04109507       0.09094568       0.13910292      -0.04194274       0.27525132       0.06804984      -0.00167406       0.27152969       0.05525305       0.00132477      -0.00104454       0.00149972      -0.00058302      -0.00069248       0.00098699      -0.00037781       0.00072818      -0.00134985       0.00050636       0.00757405      -0.01422264       0.00533548       0.00608081      -0.01372517       0.00507635       0.00769494      -0.01730889       0.00638701       0.00414535      -0.00817508       0.00306807       0.00829676      -0.01626666       0.00611177      -0.02511880       0.05162352      -0.01928648      -0.01710706       0.03515974      -0.01314728
C       -2.66822373      -0.60510175       1.02010179      -0.01249454       0.18462153       0.06440257      -0.06809182       0.08308570      -0.10987760      -0.01980391      -0.08915317      -0.11625944       0.00842789       0.08534425       0.18299106       0.03955838      -0.18757741       0.07815241       0.19931943       0.02213836      -0.03120494       0.02744104      -0.15948873      -0.06801700       0.04056620       0.01489314      -0.00741934       0.10956416       0.02022958      -0.00744662       0.05937628      -0.08094489      -0.06838773       0.03326018      -0.11880241       0.05679473      -0.04434171       0.13226385       0.08386133      -0.13424416      -0.13202503      -0.04806857      -0.14460363       0.04180713       0.09422494      -0.00647298       0.14418640       0.05206379       0.01594176      -0.13536510      -0.05572827       0.03837712       0.08613023      -0.05522198      -0.01532510      -0.09726109       0.13283663      -0.01798236      -0.01136182      -0.06201284       0.01405568      -0.04236164      -0.06038020       0.14000869      -0.06681596       0.17203895       0.14687757      -0.02552033       0.15855048      -0.10280497      -0.13960811       0.13916801      -0.01626126       0.10013863       0.04805927       0.02342388      -0.05615395      -0.05706804       0.01056644      -0.04547343      -0.02548619      -0.01793632       0.04629861       0.02978035       0.10222075       0.01009426      -0.04032344       0.00084229      -0.06286252      -0.02242366       0.00190357      -0.05159236      -0.01919117      -0.02865247       0.06104518      -0.01489194      -0.00572249       0.05427981       0.02547881       0.01104822       0.03891781       0.06211718      -0.00226521       0.04993876       0.01986920      -0.00134616       0.04687873       0.02164292      -0.00296552       0.01938862       0.00568649      -0.00142980       0.00679620       0.00015243       0.02526221      -0.09393642       0.24172438      -0.02724383       0.08805658      -0.20992394      -0.03880889       0.00284879      -0.01394432      -0.04620898       0.00275118      -0.01480514      -0.03355023       0.01402990      -0.04158323      -0.03629148       0.01509984      -0.04278007       0.00502996       0.00406096      -0.01746561       0.00869289       0.00158018      -0.00649487       0.02549347       0.00032257       0.00584618       0.01950511       0.00010995       0.00499709       0.04471066       0.00288303       0.01189229      -0.00827938       0.00475414      -0.00903752      -0.04257398      -0.00341753      -0.00015824      -0.09431417      -0.01506595       0.00686207      -0.20105576      -0.04708994       0.06721703       0.23725239       0.05376794      -0.07224437       0.10494645      -0.01254455       0.05627726      -0.13386563      -0.00083720      -0.02713994       0.04115791       0.03733695      -0.08809531      -0.07682800      -0.03482366       0.07459625      -0.00035539       0.01241100      -0.02716627       0.06968291       0.05358937      -0.11950831      -0.10117987      -0.05837777       0.12496391       0.27910466       0.03824542      -0.03245616      -0.27411200      -0.03427834       0.02033819      -0.00060257       0.00034395      -0.00106797       0.00098570      -0.00054861       0.00173583      -0.00632285       0.00489552      -0.01476456       0.00056174      -0.00044341       0.00133243       0.00590840      -0.00581133       0.01706147      -0.00506498       0.00494722      -0.01457029       0.00575773      -0.00475319       0.01415663      -0.00487792       0.00400335      -0.01192532      -0.01477340       0.01288311      -0.03819593       0.02060959      -0.01799015       0.05328446
C       -4.01535824      -0.61884647       0.72392308      -0.00938081       0.15945251       0.05135360      -0.05788668       0.14260988      -0.15904852      -0.00611198      -0.14323219      -0.17606480       0.00870006       0.08574590       0.18173110       0.03994025      -0.19001901       0.07652894       0.19917074       0.02645021      -0.03072147       0.02023127      -0.12643650      -0.03872033       0.01392191       0.15561105       0.10689934       0.09410345      -0.10886091       0.07769162       0.03453024       0.08304134       0.05254016       0.04498047       0.01140299      -0.00986137      -0.02299034       0.04122892      -0.00246027      -0.14475247      -0.04911951      -0.05641824      -0.13802057       0.04717125      -0.02888146       0.02041832      -0.13207053      -0.04770722      -0.01117298       0.13088370       0.05208005       0.02311108       0.08131845       0.04312284      -0.00036841       0.07100535       0.05954321      -0.04775958       0.09292799      -0.10619752      -0.00783372       0.11241628       0.03679074       0.21280960       0.07396303      -0.11308914       0.22454674       0.04516354      -0.12136051      -0.10690021      -0.00086979       0.16967557       0.00223100      -0.13042165      -0.04264990       0.00645247       0.11268594       0.01074847       0.01095824      -0.01646476      -0.00899469      -0.01848040       0.00693769       0.02494931       0.17220913       0.06788984      -0.15803207      -0.00360267      -0.04545471      -0.00769356      -0.00061109      -0.03811972      -0.00853600      -0.04942967      -0.03179608       0.04936853       0.00105453      -0.00638538      -0.00337473       0.03906856       0.01588386      -0.04112670       0.00846397      -0.06426257      -0.02758562       0.01024481      -0.05889992      -0.02798051       0.00526080      -0.06850769      -0.02329278       0.00125422      -0.02930078      -0.00883256       0.00739016       0.01880106      -0.04351661      -0.01112629      -0.01843090       0.04310121       0.03140606       0.03151653      -0.07659870       0.03632245       0.03715587      -0.09060818       0.03318615       0.01265285      -0.02593363       0.03183896       0.01135425      -0.02260711       0.00745576       0.02027835      -0.05104515      -0.00612128       0.01340801      -0.03624047       0.00228663      -0.00232743       0.00739609       0.00325404      -0.00237498       0.00749538      -0.04865779      -0.01384208       0.02467885      -0.03185166       0.00308155      -0.01630181      -0.01337253       0.00759893      -0.02406650       0.03345420       0.02359259      -0.05338141       0.15204504      -0.05000474       0.16992163      -0.18814057       0.04852666      -0.17594685      -0.12885997      -0.00985077      -0.00851218       0.10681646       0.01865751      -0.02317864       0.09887494      -0.01939570       0.07898715      -0.06924052       0.02381442      -0.08285072       0.09248185      -0.03222600       0.10566853       0.07925971      -0.06706587       0.20259102      -0.04357802       0.06351089      -0.18349218      -0.22981651       0.00816067      -0.08084729       0.22832600      -0.01292424       0.09503799      -0.00593000      -0.00313406       0.00679003       0.00892422       0.00473416      -0.01027448      -0.04341759      -0.02112807       0.04458755       0.00405030       0.00196922      -0.00415356       0.01612671       0.00797556      -0.01687372      -0.01324155      -0.00655985       0.01388542       0.00098737       0.00059237      -0.00125337       0.00041079       0.00011585      -0.00024584       0.01225536       0.00590617      -0.01255923      -0.01789098      -0.00862523       0.01834474
H       -5.51562260      -0.21941666      -0.75165242       0.01221036      -0.03293594      -0.02265636       0.01151440       0.23215526      -0.20537628       0.04419832      -0.21305213      -0.24611816       0.01019442       0.08621607       0.18033640       0.04099879      -0.19279669       0.07470083       0.19874795       0.04446141      -0.02541369      -0.01549101       0.07930489       0.05381237      -0.06531118       0.28674378       0.22329684      -0.02953674      -0.26831481       0.15963034      -0.05009141       0.24578226       0.18017304       0.13305003       0.25698135      -0.02566996       0.04573695      -0.34103147      -0.18023752      -0.17118721       0.32595690       0.04935106      -0.05156573      -0.18833140      -0.20061535       0.00472920      -0.01920930      -0.00081442       0.00295601       0.00670115       0.00679214       0.01299459      -0.28924168      -0.04036882       0.11950868      -0.10170867      -0.05922826      -0.20664910      -0.04046789      -0.08176780      -0.00811037      -0.16099903      -0.04485491      -0.02945489      -0.07878817       0.17419334      -0.03476909      -0.07009194       0.19827508       0.20819565      -0.06964064      -0.04477483      -0.02724833       0.33855932       0.11671722      -0.00259216      -0.32836204      -0.12973680      -0.04059054       0.35840702       0.14533431       0.05869316      -0.37614993      -0.12949913      -0.14072946      -0.03448255      -0.03693237       0.00902555       0.00627522       0.00534905       0.00464456       0.01842137       0.01001158       0.01021165       0.39852357       0.19347967      -0.04089000       0.39739405       0.14333789      -0.07396821       0.31863242       0.07864035      -0.00783092       0.03062564       0.00884158      -0.00925187       0.02022724       0.00425765       0.05059788      -0.47484591      -0.17832707       0.02410811      -0.21382287      -0.07985800      -0.14727506      -0.01566829      -0.03682449       0.14488770       0.03705786      -0.00760826       0.11630841      -0.00426352       0.02966452       0.14080851      -0.00245340       0.02825819      -0.05262633      -0.09999408       0.26364221      -0.06553521      -0.11461972       0.29880964       0.00523387      -0.01561868       0.04952519      -0.00133782      -0.01216322       0.03612835       0.11386907       0.21599222      -0.54194726       0.09303567       0.17650514      -0.44289648      -0.03222698      -0.01051893       0.02209321      -0.04784079      -0.06389297       0.15539846      -0.04476158      -0.07806795       0.19185114       0.00165165      -0.06064026       0.15065393      -0.05190827      -0.06451807       0.15404054       0.02475816       0.04209528      -0.09997780      -0.09763801      -0.15032487       0.38446467       0.10891812       0.13463003      -0.32887051      -0.02662634       0.07953047      -0.22916795       0.06605531      -0.03153131       0.10880099      -0.10940942      -0.03628556       0.09649143      -0.09504156      -0.11568648       0.27467787       0.07100033       0.11309434      -0.27133448       0.09016627      -0.02773806       0.08479470      -0.08989214       0.01361217      -0.05699567      -0.23898762      -0.00537594      -0.05213405       0.38406692       0.00863505       0.08381422      -0.31395077      -0.00651872      -0.06982687       0.02797953       0.00057981       0.00622732      -0.56746023      -0.01260870      -0.12443794       0.46381577       0.01031802       0.10167865      -0.20197753      -0.00483067      -0.04320270       0.11769510       0.00285419       0.02505215      -0.12130687      -0.00238259      -0.02705906       0.19135094       0.00380553       0.04256634
H       -3.90428421       0.57225167      -2.44035161       0.04122590      -0.29597852      -0.11829278       0.10422602       0.20270690      -0.13073613       0.08898576      -0.16548023      -0.18109967       0.01200733       0.08577770       0.18185799       0.04160923      -0.18999644       0.07659534       0.19847379       0.06277121      -0.01707900      -0.05902569       0.32325011       0.12773261      -0.11712814       0.04087576       0.05969897      -0.20866616      -0.11162250       0.06599810      -0.09263472      -0.03894610       0.00410474       0.26189502       0.06791829       0.00734205       0.07474651      -0.07288125      -0.04230290      -0.03244365      -0.02077363      -0.01414531       0.09362813       0.11133988       0.02390595      -0.03635715       0.30796584       0.11575100       0.02427094      -0.29754966      -0.11056276      -0.12760674       0.22667989       0.10106108       0.03067196       0.29225254       0.04561156       0.09510344       0.15804588       0.06784655      -0.06550552       0.34103905       0.13793841      -0.04782979       0.11075251      -0.21466684      -0.06526911       0.00940910      -0.24586642      -0.14430472       0.12960238      -0.02673788       0.00047510       0.01754449       0.00782516       0.05248995      -0.10756193      -0.01814655      -0.03613261       0.30306945       0.11035978      -0.01841237      -0.29716108      -0.12904286       0.28918442      -0.06748666       0.12649410       0.00985990      -0.28982611      -0.11331875       0.01040500      -0.24210212      -0.09326791      -0.13076469       0.13507505      -0.01518418      -0.00154877       0.09802425       0.03659693       0.08021798       0.09038920       0.08366540       0.04589152      -0.42357994      -0.15239587       0.04302423      -0.37054966      -0.13019506      -0.03992999       0.42489347       0.15388762      -0.01953964       0.19732021       0.07027805      -0.18499571      -0.04160610       0.08085387       0.23743772       0.02028393      -0.08142565      -0.22221710      -0.07761781       0.14790493      -0.26164799      -0.09252828       0.17678539      -0.19406495      -0.02400419       0.02559100      -0.22513922      -0.02631046       0.01875639      -0.21932912      -0.05357125       0.10771446      -0.29408069      -0.06436768       0.11000534      -0.34703709      -0.07209942       0.10870603      -0.26544085      -0.05523663       0.08320179      -0.34898651      -0.05941636       0.05973190      -0.40926964      -0.07210432       0.07914650      -0.34465956      -0.06562048       0.08008273       0.03101269      -0.00735657       0.03164557      -0.26447520      -0.05384730       0.05852123       0.10578138       0.02658544      -0.02999992      -0.28500602      -0.07967921       0.14891503       0.33811711       0.08320522      -0.13643575      -0.16317337      -0.00337620      -0.03880940       0.27221679       0.03196292      -0.01790038      -0.26698774      -0.06103043       0.12520615       0.04563507      -0.03656087       0.11047841      -0.10633508       0.02125019      -0.08277831       0.21946000       0.05826760      -0.09295905      -0.17812511      -0.05614059       0.09117586       0.14413153      -0.13279050       0.39981934      -0.22583946       0.20802474      -0.62627827      -0.12260213       0.11133895      -0.33539169       0.01137452      -0.01032757       0.03111881      -0.05074726       0.04676237      -0.14053211       0.04451655      -0.04095489       0.12304597      -0.08992178       0.08304227      -0.25021235       0.05670330      -0.05240907       0.15787263      -0.01550331       0.01451216      -0.04364911       0.03045682      -0.02842735       0.08549763
H       -1.48031751       0.62001470      -1.90700386       0.03585935      -0.25064314      -0.09814450       0.08679284       0.09558297      -0.04176620       0.06344148      -0.06813615      -0.07365209       0.01151939       0.08505147       0.18412174       0.04087922      -0.18560267       0.07951400       0.19877105       0.05495365      -0.01770050      -0.04516458       0.25097596       0.07466783      -0.06889463      -0.19253506      -0.13911690      -0.17919228       0.12129758      -0.08661795      -0.04965659      -0.23735213      -0.18053115       0.25967046      -0.18139587       0.12152333       0.02683990       0.19047802       0.14626272      -0.07756951      -0.23764754      -0.03395339       0.00309507       0.07857684       0.22539566       0.02875370      -0.29249546      -0.11750570      -0.03068256       0.30293619       0.10321144      -0.08640526       0.21866670      -0.07084921       0.12040657       0.10305243       0.21014415      -0.16876383       0.06130132       0.11381499      -0.05152236       0.17911149       0.00422990      -0.10339888      -0.06776016       0.16995553      -0.11749112      -0.08575126       0.11854599       0.17657554      -0.04671281       0.04966383      -0.02370376       0.34510410       0.13546857       0.01032612      -0.35663551      -0.13206340      -0.02108905       0.23198025       0.07928228       0.01091936      -0.20066652      -0.09708870       0.05751391      -0.11256267       0.02639780       0.02392220      -0.40331280      -0.16472628       0.02083138      -0.34124220      -0.13921715      -0.04107125      -0.20657026      -0.13427458       0.01760749      -0.34400453      -0.13943850       0.05997358      -0.39597745      -0.13771082      -0.01369924       0.28483508       0.11758713      -0.00929235       0.24833582       0.10210237       0.00966759      -0.16530230      -0.06531922       0.00325746      -0.07358249      -0.02855878       0.00033071       0.11864441      -0.31037093       0.00787817      -0.16363091       0.31051217      -0.25331521       0.06356514      -0.18312789      -0.31076706       0.07517621      -0.22435594       0.31364956      -0.06928206       0.21653520       0.33008644      -0.05999020       0.21444089       0.24368020      -0.08137871       0.22064925       0.28358737      -0.08591894       0.24525134       0.09778415      -0.03255516       0.09998512       0.06836224      -0.02327271       0.07265281       0.18007741      -0.02254511       0.13912908      -0.24924455       0.08755134      -0.24406569      -0.23311176       0.07077982      -0.21852088      -0.13528029       0.00752767      -0.11707010      -0.05614964       0.03475794      -0.05093621      -0.01670141      -0.01497101      -0.00507542      -0.02176765      -0.04940552       0.10608266       0.11456998       0.03235888      -0.00785310      -0.25416612       0.06282021      -0.25178628       0.26723984      -0.04079271       0.21059657      -0.05150870      -0.00983497       0.08503852       0.14737680      -0.01816427       0.09150129      -0.15069259       0.00807064      -0.05740355      -0.03109178       0.04833247      -0.15074958       0.06829355      -0.05711040       0.15265154       0.07518581       0.03485232      -0.07518455      -0.11478779      -0.05325271       0.11499910      -0.10143771      -0.04743779       0.10254420       0.00989447       0.00464458      -0.01008977      -0.19841640      -0.09325147       0.20266473       0.16002188       0.07531382      -0.16384483       0.48723656       0.22762110      -0.49448626      -0.31855060      -0.14893161       0.32315576       0.03893694       0.01821594      -0.04015882      -0.08991002      -0.04223647       0.09273744
H        1.62533774      -1.66122248       0.68250822      -0.02192188       0.07914831       0.25826816      -0.09875246      -0.08267275       0.02111011       0.03675979       0.07311047       0.08237660       0.00846250       0.08410070       0.18689557       0.04188292      -0.17984443       0.08339799       0.19824854       0.02277290      -0.04513343       0.00348664       0.07069485       0.26040783       0.10945888      -0.12163827      -0.18543599      -0.17225559       0.06852906      -0.14176172      -0.10119483       0.16318478       0.23356798      -0.24863654       0.09596612      -0.20994798       0.06855466      -0.13389844      -0.18903767       0.10984093      -0.01430693      -0.22669856      -0.04130786       0.21987510       0.08335759       0.02221698      -0.10652019      -0.29212135       0.02040406      -0.09510174      -0.31122457      -0.06719013       0.06871116      -0.22586483       0.15786131      -0.18934000      -0.09230183      -0.14414745      -0.13101461      -0.08496285       0.02821670       0.00312774       0.18423049       0.08840135       0.18393788      -0.04962396      -0.11121712      -0.13565124       0.06709613      -0.17439302       0.02967948      -0.06711405       0.03606436      -0.12266757      -0.34783826       0.05045499      -0.11768654      -0.35890645       0.01774860      -0.07136266      -0.23413787       0.02631301      -0.08958042      -0.20365774       0.04614087      -0.02373537       0.11837253      -0.03950504       0.12556965       0.34168291       0.04656228      -0.15015308      -0.40889779       0.08281398      -0.11933348      -0.20235167      -0.04281791       0.12615266       0.34637831       0.00732094      -0.12801276      -0.40500617       0.03311826      -0.09741748      -0.26236722      -0.03786445       0.10230404       0.27730185      -0.00763314       0.02617895       0.07279568       0.01973565      -0.05851136      -0.16642690      -0.02439790       0.31253522      -0.10961626      -0.02698658       0.31372564      -0.15536268      -0.31930772       0.18451530      -0.10874819       0.27095115      -0.15609729       0.08992066      -0.36506347       0.19794265      -0.11343479       0.30499027      -0.15297328       0.08359969      -0.25881683       0.19286970      -0.10639240       0.29930059      -0.21161917       0.11480736      -0.08685296       0.07288329      -0.03485387       0.09309903      -0.08101630       0.03771911      -0.19179368       0.11652623      -0.04155781      -0.26705245       0.21613833      -0.11279354       0.25223388      -0.19334425       0.09444150      -0.13165420       0.08794386      -0.01584411      -0.05770981       0.04513508      -0.04026139       0.01837407      -0.00193728      -0.01322767      -0.01634210      -0.10954522       0.04345190      -0.11606435      -0.02137574       0.01660552       0.27427919      -0.22126914       0.08820766       0.28473792      -0.17782650       0.06906816       0.04101649       0.09109189      -0.00104355       0.15405157      -0.07331500       0.03434527       0.15511007      -0.03904570       0.02581560      -0.04375032       0.14761012      -0.04798719      -0.07960969       0.14539209      -0.06140986       0.10661007       0.13228101      -0.03581456       0.06593584       0.08196832      -0.02217972       0.00787325       0.00977244      -0.00266224       0.09019008       0.11304531      -0.03069436      -0.14675406      -0.18574889       0.05030219      -0.17448601      -0.22138676       0.05994043       0.29433778       0.37039073      -0.09997298       0.44425751       0.55879301      -0.15105660       0.06571604       0.08394142      -0.02244608       0.06745486       0.08619647      -0.02313854
H        4.08479030      -1.89072851       0.92903854      -0.02745135       0.08238780       0.31690555      -0.11676367      -0.18785321       0.10301081       0.03480536       0.17041114       0.19230597       0.00816742       0.08340064       0.18916463       0.04200805      -0.17538007       0.08635158       0.19815746       0.01806180      -0.04867782       0.00140605       0.12194649       0.33649031       0.10315599       0.07205750       0.05663584      -0.21050102      -0.09577970       0.08184796      -0.09574671      -0.01723604       0.02657716      -0.26694413      -0.02762525       0.03432605       0.05946982       0.04805571       0.08274848       0.03627637      -0.00918165      -0.01682728      -0.10887956       0.00755661       0.09903807      -0.01629749       0.10496299       0.30850674      -0.02690689       0.10182038       0.30558145      -0.08496354      -0.10641990      -0.24349220       0.07184352      -0.02932147      -0.28700220       0.12165956      -0.04893796      -0.14620394       0.00511498       0.13066030       0.35010613       0.06063707      -0.21144379       0.11029497      -0.09428184       0.23636449      -0.01124507       0.12958820      -0.01419488       0.14618774       0.00373534      -0.00691952      -0.01721248      -0.03617661      -0.01996160      -0.11378255       0.01539203      -0.10095354      -0.30712697       0.07101719      -0.11372033      -0.29677898       0.29252212      -0.09266538       0.10051385      -0.03425672       0.08569481       0.24544538       0.03774108      -0.09990629      -0.29018994       0.11415369      -0.00475867       0.14964787       0.01472534      -0.03209371      -0.09793373      -0.10070363       0.06923119       0.08128675      -0.02425067       0.12751855       0.39282705       0.02221265      -0.13250353      -0.41777577       0.01452696      -0.05997405      -0.18224978      -0.03200788       0.14094855       0.43622367      -0.17699003      -0.10459535       0.01574959      -0.22610733      -0.11080075      -0.01206606      -0.25150277      -0.21294034       0.05414455       0.20448933       0.17546468      -0.04493760       0.21459830       0.05505286       0.00189362      -0.19885258      -0.04103977      -0.00284770       0.21014490       0.13658642      -0.02260049      -0.28406635      -0.14800797       0.02368178       0.27669380       0.12599294      -0.02021814      -0.32037251      -0.14596554       0.02351697       0.34305285       0.10441667      -0.01305761      -0.40294688      -0.13212896       0.01758472       0.33369673       0.12452021      -0.01949498       0.05447663      -0.02013012       0.00921739      -0.25885091      -0.09243088       0.01821956      -0.10582943      -0.04464688       0.01230142      -0.27592515      -0.18813054       0.03940817      -0.32227899      -0.17769549       0.03552720       0.16508782      -0.01885284       0.01646980       0.26909338       0.05215555       0.00338738       0.25411587       0.15933628      -0.02339500       0.05412652      -0.10530939       0.03912312       0.11259222      -0.07032528       0.03257460       0.21118145       0.12137434      -0.02749503       0.17057584       0.11455325      -0.03070742       0.27879893      -0.60753834       0.22079787       0.17704136      -0.38569632       0.14019469       0.01348850      -0.02903927       0.01057808       0.14559828      -0.31347517       0.11415565      -0.05051748       0.11000283      -0.04005207      -0.06551596       0.14243233      -0.05189052      -0.07223566       0.15781565      -0.05727602      -0.10525911       0.23007795      -0.08351353      -0.03186478       0.07024878      -0.02549350      -0.02916841       0.06418435      -0.02330269
H        5.55361803       0.01432209       0.39219541       0.00270076      -0.01219766       0.06373522      -0.02043175      -0.23601761       0.19554097      -0.01539506       0.22287684       0.24121737       0.00919835       0.08302016       0.19062756       0.03920340      -0.17276536       0.08796944       0.19944802       0.02298646      -0.02771665      -0.00150589       0.05189918       0.08343750       0.00083702       0.21785944       0.29768348      -0.04173586      -0.17264859       0.25866681       0.00361911      -0.17487389      -0.25479327      -0.15925247      -0.05219741       0.23768686      -0.01954545       0.17008977       0.34825620       0.12224010       0.05641644       0.34625256       0.09933259      -0.18476951      -0.18539803      -0.00225806      -0.00049454      -0.01956212       0.00456406      -0.00610561      -0.00673342      -0.02783558       0.02962973       0.28952312       0.09762078       0.06919896       0.11759866      -0.21875750       0.05402425       0.01599837       0.03349819      -0.03683501      -0.15990727       0.01651685       0.17937098      -0.06996127      -0.01770505      -0.20383248       0.06010762      -0.19070777      -0.06694185      -0.09643540       0.02933592      -0.10475095      -0.34146731       0.05934781      -0.11483789      -0.32918140       0.02245799      -0.13382929      -0.36325049       0.00489792      -0.12044584      -0.38519052      -0.14745308       0.01793158       0.01730924       0.00879512      -0.00236358      -0.00198732      -0.00976985       0.00909727       0.01848594      -0.08344811       0.17364488       0.39798969       0.02690030      -0.13068338      -0.40296879       0.02359825       0.07432367       0.32915504      -0.00214253      -0.00843706      -0.03067538       0.00619668       0.00601268       0.02632571      -0.01448601       0.07128614       0.20976192       0.03030152      -0.16411606      -0.48523542      -0.15152385       0.01778533      -0.00214514      -0.14623983      -0.02688405       0.01819316       0.14168836      -0.01734069       0.02159936      -0.11799417       0.00813145      -0.01601316       0.03512107       0.30509684      -0.09598518      -0.03693710      -0.27541799       0.08690353      -0.00954542       0.04917396      -0.01488074       0.00191480      -0.03505747       0.01048143      -0.05675478      -0.45596625       0.15105217       0.06993630       0.56206512      -0.18619565       0.03029975       0.02688578      -0.00597046      -0.03539122      -0.16389238       0.05367155       0.02869828       0.20335363      -0.06839601       0.01512108      -0.13920630       0.05221478      -0.03937195      -0.16126301       0.05314699      -0.01717520      -0.10536210       0.03641954      -0.06696852      -0.40334456       0.12793560      -0.08123625      -0.33954910       0.10938570       0.04532727      -0.22828836       0.07660913       0.07486360      -0.10168684       0.03701756       0.09986468       0.11063056      -0.01959569      -0.07274596      -0.28815775       0.09527369      -0.04957619      -0.28339949       0.09637860       0.09604326      -0.07430965       0.03679625       0.09405202      -0.04613686       0.02346564      -0.37903057       0.03463053      -0.03696616      -0.24678748       0.02256772      -0.02407075       0.03107621      -0.00296382       0.00307760       0.32502855      -0.03103999       0.03219755      -0.47576483       0.04399674      -0.04651219      -0.57425473       0.05306636      -0.05612715      -0.13653731       0.01192383      -0.01315105      -0.18383185       0.01587031      -0.01765376      -0.18748912       0.01797370      -0.01875029      -0.14320020       0.01365325      -0.01429405
H        4.58650153       2.14149018      -0.39226516       0.03833864      -0.11051771      -0.24677053       0.09364228      -0.17996940       0.20699330      -0.06332860       0.17904542       0.18136334       0.01051897       0.08332986       0.18984207       0.03629229      -0.17456430       0.08666880       0.20078407       0.03260587      -0.00330000       0.00017894      -0.06771678      -0.24259535      -0.09127527       0.16111401       0.25487876       0.16304563      -0.10642407       0.19204054       0.09605598      -0.10790835      -0.17829002       0.02316071      -0.05443099       0.05437809      -0.04061316       0.01594499      -0.05294244       0.16241232      -0.04723780      -0.05505380       0.17501542      -0.02546971       0.13065661       0.00915169      -0.09199768      -0.28324541       0.02251016      -0.09982791      -0.28730820       0.09870059      -0.11806240      -0.20408660      -0.08333839      -0.04375817      -0.29999219       0.03935002      -0.00214846      -0.20353402      -0.05904734       0.14034284       0.36054837      -0.10521901      -0.19409949       0.08911906       0.12387066       0.21557899       0.01589521       0.27909899       0.04807127       0.10571808      -0.01575690      -0.00650214      -0.01576180      -0.04450570      -0.03625299      -0.10231250       0.03684148      -0.10412183      -0.30171106       0.05915636      -0.09602683      -0.29503004       0.32440358       0.04207066      -0.03080578       0.00415522      -0.08798117      -0.25373553      -0.01009452       0.10666153       0.31026683       0.06341408       0.07107467       0.09700792       0.00156295      -0.02805287      -0.09732201      -0.04252013      -0.01673207       0.07405822       0.02617637      -0.11145656      -0.33348147      -0.03279800       0.12496339       0.38071437       0.01525856      -0.07568627      -0.22364691      -0.03158352       0.16719178       0.48647853      -0.14510971       0.13179938      -0.05272472      -0.11547541       0.11472755      -0.04628514      -0.17974127       0.24685359      -0.09742126       0.15474255      -0.20655020       0.08207675      -0.21712959       0.09248106      -0.04467575       0.19656986      -0.09400748       0.04443300       0.21218881      -0.20187891       0.08295208      -0.25930951       0.20819296      -0.08916883      -0.18223246       0.13118487      -0.05688968       0.24277264      -0.17458516       0.07566905       0.43946543      -0.23948086       0.11248730       0.10446810      -0.08229311       0.03723826      -0.24335228       0.15370407      -0.07044092       0.46174695      -0.24128993       0.11490553       0.02024614      -0.05327838       0.01765799       0.06091583      -0.05724050       0.02204867       0.10955258      -0.18073718       0.06601254       0.00297722      -0.11486819       0.03723028       0.31092512      -0.22298554       0.09528499       0.28738609      -0.17610220       0.07836692       0.17547923      -0.09061455       0.04180910      -0.19802882       0.02048310      -0.01807725      -0.17317126      -0.00582127      -0.00776827       0.10052858      -0.16945601       0.06463455       0.10322378      -0.15903674       0.06157667       0.11019526       0.14330330      -0.04077323       0.06753427       0.08781861      -0.02499032      -0.04522605      -0.05798411       0.01644269      -0.49088772      -0.62941773       0.17847925      -0.14142181      -0.18141784       0.05147665      -0.17208872      -0.22064529       0.06261921      -0.00970282      -0.01259798       0.00359642       0.00158223       0.00179305      -0.00050953      -0.17659132      -0.22748240       0.06458311      -0.12587039      -0.16214930       0.04605087
H        2.13074181       2.36059872      -0.64847820       0.04388855      -0.11524407      -0.30414215       0.11159259      -0.07472023       0.12502502      -0.06055621       0.08180574       0.07165722       0.01081649       0.08402823       0.18757532       0.03620729      -0.17902417       0.08371797       0.20087899       0.03740750       0.00010324       0.00073000      -0.11723829      -0.30549577      -0.08285255      -0.03767594      -0.00307964       0.20149244       0.05797705      -0.02715990       0.07520782       0.09544240       0.10857052       0.04166025       0.07569427      -0.15504326      -0.05554323      -0.13048162      -0.21460914       0.22989036      -0.01192246      -0.18021957       0.24844236       0.19929244       0.14094470      -0.03465002       0.10298181       0.32019806      -0.01077835       0.11734806       0.31869361       0.12423856       0.05386039      -0.20925193      -0.00355481      -0.19077465      -0.07245513      -0.23980848      -0.08286568      -0.08327133      -0.02589305       0.00105217       0.14724718      -0.04786656       0.19795501      -0.07123951       0.07718377      -0.15244519       0.08789829      -0.02875605       0.08642001      -0.13684171       0.01575971      -0.12649592      -0.33876182       0.03378989      -0.13797044      -0.33416976       0.02517365      -0.06970381      -0.23712881       0.00817117      -0.06930830      -0.21916081       0.07897849       0.00945311      -0.12085312       0.01221208      -0.11993420      -0.33871110      -0.01917272       0.13737837       0.39629233       0.02543651      -0.15137844      -0.32505069      -0.02268499       0.11971676       0.36342149       0.01171326      -0.07638440      -0.35471302      -0.00759510       0.08209397       0.23411448       0.01113107      -0.09325754      -0.27861889      -0.00637564       0.03601048       0.10610921       0.01085726      -0.07563443      -0.20885960      -0.10331655      -0.30428318       0.08533651      -0.09599540      -0.28389335       0.04203152      -0.37995859      -0.12994348       0.02829228       0.31117476       0.10764170      -0.02377368       0.37018868       0.09900486      -0.02105266      -0.34846711      -0.09959126       0.02518598      -0.40731403      -0.19403157       0.05712762       0.31756603       0.14306694      -0.03576879       0.04179187       0.02949433      -0.00888397      -0.07143211      -0.04472928       0.01280137      -0.04750884       0.00568387      -0.02535873       0.30422379       0.14715427      -0.02017726      -0.31233448      -0.15339400       0.03042949       0.24350412       0.13131167      -0.04751291      -0.08370475      -0.04864253      -0.00264091      -0.09505886      -0.04721710      -0.01120663      -0.15480092      -0.16536617       0.04199421      -0.25083699      -0.18434169       0.04131803       0.20426718       0.01018882       0.01720568       0.27483758       0.06802234       0.00796280       0.13547444       0.03288865       0.00569269      -0.15151898       0.02224956      -0.01735647      -0.14987364       0.01736989      -0.01703304      -0.16789057      -0.13528282       0.02367804      -0.15998119      -0.14029011       0.02773533       0.01260690      -0.02564153       0.00964720       0.00826022      -0.01680413       0.00634161      -0.00913261       0.01891055      -0.00703273      -0.09585084       0.19872404      -0.07397831      -0.08079090       0.17176843      -0.06384053      -0.10188400       0.21669678      -0.08053494      -0.04840740       0.10093774      -0.03748266      -0.09599299       0.20014656      -0.07429765       0.29469062      -0.62049362       0.23061928       0.20052439      -0.42215513       0.15695158
H       -2.30227520      -0.92857848       1.98251025      -0.02740686       0.31802638       0.11490101      -0.11587743       0.04892509      -0.10318857      -0.05024204      -0.06703652      -0.09725397       0.00743576       0.08520501       0.18332065       0.03898117      -0.18685748       0.07861265       0.19956886       0.01081385      -0.03510160       0.05232576      -0.29331343      -0.12245990       0.08612168       0.00833961      -0.02695945       0.20204349       0.05476400      -0.03095866       0.09935945      -0.09442756      -0.08779089      -0.03073457      -0.16179308       0.06591312      -0.09795609       0.20084733       0.12785298      -0.20191763      -0.20642242      -0.04565566      -0.28685241       0.10104146       0.16971327      -0.01982835       0.32205171       0.11660446       0.04394415      -0.30774880      -0.12421745       0.10233271       0.22499408      -0.03225506      -0.03609503       0.06351142       0.19059229      -0.25672651       0.04981421       0.05385598       0.00670154       0.14912183       0.00808990       0.03193123      -0.07298479       0.20063852       0.06843439      -0.08390572       0.15857601       0.03505698      -0.13593819       0.08571288      -0.04304565       0.33330558       0.13651839       0.02601928      -0.32923483      -0.14947116      -0.01397029       0.23592937       0.07861140       0.02822652      -0.21456294      -0.07509387       0.06356123       0.12986784       0.00373157      -0.05326847       0.39414074       0.15272879      -0.03971209       0.32669279       0.12442047       0.03492012      -0.32034068      -0.16214968       0.03857175      -0.35879437      -0.13102397       0.04274192      -0.34882931      -0.08593612       0.03570792      -0.25578059      -0.09798463       0.03267864      -0.25133476      -0.09240766       0.02530991      -0.21379318      -0.08343594       0.01068066      -0.08081659      -0.03376903      -0.12808111      -0.10982745       0.28649251       0.12377758       0.06510208      -0.26814243      -0.32130572      -0.06643942       0.06626665      -0.38087328      -0.07951783       0.07996545      -0.33153110      -0.06181730       0.04421477      -0.39293000      -0.07953548       0.05937010       0.41650199       0.11443973      -0.13890270       0.32665467       0.08068195      -0.10100733      -0.05720194      -0.01943021       0.03010425      -0.06398143      -0.01978448       0.02944401       0.04900068      -0.01960144       0.01110815       0.31354190       0.06311530      -0.10627709       0.31526552       0.07234589      -0.10879339       0.26971849       0.08702260      -0.10494978      -0.08920968      -0.00965432       0.03787462       0.09991696       0.00241163      -0.03470972      -0.16339227      -0.06645877       0.14135672       0.26618187       0.08029095      -0.15181002      -0.20511486      -0.00863271      -0.01495742       0.28027812       0.02879387      -0.03305102      -0.13823100      -0.01236979       0.01561038      -0.14913628      -0.00048754      -0.04089077       0.14728373       0.00082147       0.03559651      -0.17897400      -0.04973635       0.11231474       0.17121519       0.05296320      -0.11809660       0.00694200      -0.00600511       0.01773775      -0.01123091       0.00974484      -0.02869199       0.07858768      -0.06913605       0.20527614      -0.00706726       0.00623468      -0.01848628      -0.07972331       0.07251413      -0.21443089       0.06806287      -0.06193604       0.18314541      -0.06621810       0.05856015      -0.17413784       0.05559382      -0.04914586       0.14618894       0.17250779      -0.15477198       0.45874281      -0.24045234       0.21575096      -0.63929667
H       -4.72509670      -0.96687369       1.46011583      -0.02204994       0.27422211       0.09338875      -0.09844496       0.15576549      -0.19192955      -0.02553958      -0.16425665      -0.20473021       0.00790901       0.08592910       0.18105423       0.03967752      -0.19124840       0.07569375       0.19927178       0.01846308      -0.03439623       0.03885182      -0.23420667      -0.07168633       0.03732543       0.25759533       0.17761654       0.17181295      -0.17374151       0.12185826       0.05857131       0.18412586       0.12360929      -0.02310148       0.05325390      -0.05562207      -0.04474416       0.04819787      -0.01958314      -0.14707466      -0.07258459      -0.06888289      -0.18573911       0.10913097      -0.04411299       0.03864597      -0.28233784      -0.10128210      -0.02603303       0.27942085       0.10777047       0.05673503       0.20967746       0.13490528      -0.12553076       0.28559337       0.04056905       0.01256521       0.20671505       0.01245071      -0.00493598       0.35889661       0.15593861       0.11616573       0.10944617      -0.17692500       0.15024894       0.00841884      -0.19827213      -0.29406608       0.06868624       0.01501827      -0.01857442       0.01369704       0.00493776       0.06127202      -0.09455699      -0.03294743      -0.01485790       0.30032661       0.11600735      -0.00897445      -0.29482903      -0.10990008       0.32058053       0.07192314       0.00019991      -0.04573714       0.29739459       0.11274775      -0.03530603       0.25766256       0.09724086      -0.08352156       0.08574011       0.06501814      -0.01406656       0.09562970       0.03042365       0.03457129       0.07896523      -0.00941182      -0.03339882       0.36537244       0.13552993      -0.02863229       0.34469817       0.12601120      -0.05110441       0.48309316       0.18287542      -0.02251010       0.20474385       0.07859747      -0.13344393       0.03974512      -0.14791327       0.10548238      -0.03632389       0.12727594      -0.13146639       0.07030412      -0.22015104      -0.16443368       0.08515912      -0.26722977       0.18507195      -0.01844680       0.10370483       0.21002326      -0.02592632       0.12947702      -0.19415735       0.06435164      -0.22447336      -0.24214876       0.06544321      -0.23821501       0.21243432      -0.04906375       0.18894150       0.18804213      -0.04333706       0.16712036      -0.41740991       0.06741866      -0.29039142       0.09613446      -0.02721372       0.09287637       0.21495637      -0.04408710       0.17176390       0.45300725      -0.06993377       0.30576614       0.01618219      -0.01742216       0.05551164      -0.05572803       0.01669058      -0.06358517       0.09493997      -0.05912450       0.19071010       0.00468917       0.04219469      -0.11629431      -0.29057931       0.06537443      -0.25771760       0.27101222      -0.04958871       0.20877655      -0.16693158       0.02363983      -0.11106954      -0.19517342      -0.00561290      -0.04502416       0.17154640       0.01383058       0.01581630       0.08641574      -0.05874584       0.17917518      -0.08985811       0.05492052      -0.16915398       0.08146062       0.04034822      -0.08557521      -0.12355634      -0.06120040       0.12978494       0.53640583       0.26267068      -0.55574938      -0.04995629      -0.02446378       0.05176243      -0.18959062      -0.09291496       0.19652204       0.15620197       0.07653604      -0.16183147      -0.01288725      -0.00640765       0.01358380      -0.00312206      -0.00149175       0.00308569      -0.13271146      -0.06524476       0.13816126       0.19400292       0.09540352      -0.20197831
